306
Lattice="      15.4224       0.0       0.0       0.0      15.4224       0.0       0.0       0.0      20.0" Properties=species:S:1:pos:R:3:charge:R:1:kinetic_energy:R:1
Si   5.1407039290717445E-06   5.1405986101495795E-06   5.1410942631935968E-06  -3.4379272317863752E-07   8.9769936178416915E-02
Si   2.5704000004253991E+00   2.5704000004304492E+00   5.1411303969119118E-06   1.3283369915129128E-07   3.9300048455024800E-02
Si   2.5703999999400735E+00   5.1407690923560292E-06   2.5704000004117940E+00   5.5807505283667069E-08   8.9029738399913683E-02
Si   5.1405794596181245E-06   2.5704000002926843E+00   2.5703999997491231E+00  -1.5817060106115832E-07   7.2919796972173934E-02
Si   1.2851999998952075E+00   1.2852000003784692E+00   1.2852000003104838E+00   2.5103576155593998E-06   5.4498211132510662E-03
Si   3.8556000005071267E+00   3.8556000003440403E+00   1.2851999998048080E+00  -8.0652725564789307E-07   4.8892411732726897E-02
Si   3.8555999998788284E+00   1.2852000005079498E+00   3.8556000002803912E+00  -4.4212827354783713E-07   9.6276272993762929E-02
Si   1.2852000003759219E+00   3.8556000002782005E+00   3.8556000004872324E+00  -9.5510707431856190E-07   1.7994312349509361E-02
Si   5.1407137079500199E-06   5.1412969007962258E-06   5.1408051411745115E+00  -4.8651265327492865E-07   1.7209169963075671E-01
Si   2.5704000003324823E+00   2.5703999998252853E+00   5.1408051407366289E+00   4.8492214776985065E-07   5.4786787826465976E-02
Si   2.5704000004989096E+00   5.1405751702252963E-06   7.7112000003997112E+00   3.0308968224090904E-08   8.7375631474523985E-02
Si   5.1411032927158388E-06   2.5704000004168606E+00   7.7112000002573478E+00  -4.8897900839506292E-07   9.4644751501596902E-02
Si   1.2851999998879957E+00   1.2851999999629113E+00   6.4260000004026194E+00   2.6942555035880389E-06   6.5247472484609020E-02
Si   3.8556000002705280E+00   3.8555999999256909E+00   6.4259999998504096E+00  -7.4466275634677004E-07   6.2878502165589933E-02
Si   3.8556000003193427E+00   1.2851999998709716E+00   8.9963999999620228E+00  -9.9027307420840316E-07   1.1189037872672331E-01
Si   1.2852000003688706E+00   3.8555999998046291E+00   8.9963999999850213E+00  -9.0151729903453770E-07   8.4583535711694330E-02
Si   5.1406259700444188E-06   5.1406781985290107E-06   1.0281605140768523E+01   2.2261578314086705E-07   3.5801156335144968E-02
Si   2.5704000004589895E+00   2.5703999998897187E+00   1.0281605140706764E+01  -5.2021676921754079E-07   6.7937849841896325E-02
Si   2.5703999999660248E+00   5.1406762799450243E-06   1.2852000000289863E+01   6.7489943411658260E-08   2.8048162256579436E-02
Si   5.1410772175487093E-06   2.5704000003223180E+00   1.2852000000267680E+01   3.3586319503342565E-08   9.0013812308946187E-02
Si   1.2851999997941526E+00   1.2852000003762343E+00   1.1566800000463774E+01   2.1937840406494047E-06   4.6251223073291998E-02
Si   3.8555999999958459E+00   3.8555999999293853E+00   1.1566800000484422E+01  -1.0714299580882880E-06   1.0250665205250119E-01
Si   3.8556000002660813E+00   1.2851999998335157E+00   1.4137199999892564E+01  -5.5161372358725203E-07   4.9387845982094794E-02
Si   1.2852000003089270E+00   3.8556000004832076E+00   1.4137199999807939E+01  -6.9306756689258009E-07   6.1473010656284334E-02
Si   5.1407775667308185E-06   5.1408051407836384E+00   5.1407716447488915E-06  -2.8726118372901510E-08   1.9039001920461717E-02
Si   2.5704000005002707E+00   7.7111999997919360E+00   5.1412779740142074E-06  -3.5528682218455288E-09   9.3689811861609601E-02
Si   2.5704000003342355E+00   5.1408051412832698E+00   2.5704000004458285E+00   1.2383909409052762E-07   1.5187227817520005E-01
Si   5.1410588286703681E-06   7.7112000003011660E+00   2.5703999999444065E+00   4.0244143351131356E-07   2.4408567392425287E-01
Si   1.2851999999869694E+00   6.4259999998965913E+00   1.2852000003790840E+00   2.8670755685133997E-06   6.5000233856757059E-02
Si   3.8556000004959792E+00   8.9963999999013318E+00   1.2852000003630331E+00  -8.7928033565276564E-07   1.4513775110929503E-02
Si   3.8555999998611412E+00   6.4260000002823334E+00   3.8555999998850807E+00  -1.2602788634907824E-06   5.4480420859852288E-02
Si   1.2851999998955193E+00   8.9964000003238134E+00   3.8555999999307184E+00  -1.0625004591702236E-06   1.5187404131340556E-02
Si   5.1405493749711842E-06   5.1408051406137716E+00   5.1408051413087845E+00  -2.5138241177558029E-07   3.7658407711572313E-02
Si   2.5704000003634278E+00   7.7112000004590779E+00   5.1408051412326561E+00  -2.4198555603760497E-07   3.5497567420872893E-02
Si   2.5703999999984966E+00   5.1408051413127023E+00   7.7112000003428172E+00   3.2057005183716569E-07   2.5740346905300204E-02
Si   5.1407160931510569E-06   7.7111999998337835E+00   7.7112000002816634E+00  -3.5474583892636247E-07   8.1352328955987638E-02
Si   1.2851999998147152E+00   6.4260000003603066E+00   6.4260000003965994E+00   2.4295448293187860E-06   4.1514042441951733E-02
Si   3.8555999998035144E+00   8.9963999997555639E+00   6.4259999998236914E+00  -7.4637610136818466E-07   1.5938435108891781E-03
Si   3.8556000004831863E+00   6.4259999998843602E+00   8.9964000002746989E+00  -5.5280422284198494E-07   1.6006544344626933E-01
Si   1.2851999997676118E+00   8.9964000003399356E+00   8.9964000004047691E+00  -7.2637145898113431E-07   1.2148432027471473E-01
Si   5.1406286497232683E-06   5.1408051410842512E+00   1.0281605140666693E+01   1.9750574509203034E-08   4.2867326827327197E-02
Si   2.5704000003757024E+00   7.7112000002614725E+00   1.0281605141068120E+01   1.3127716922411992E-06   3.9255796940919963E-02
Si   2.5703999998620990E+00   5.1408051411842299E+00   1.2851999999813895E+01  -2.7175998607020802E-07   5.0617616639122072E-02
Si   5.1411452303759477E-06   7.7111999998819556E+00   1.2851999999761460E+01  -1.7527736062561416E-07   8.1628264502406331E-02
Si   1.2851999998189036E+00   6.4259999998637030E+00   1.1566799999944571E+01   2.7290648541011819E-06   1.7221315924873415E-01
Si   3.8556000004683910E+00   8.9963999999478084E+00   1.1566800000469234E+01  -8.0226946419514888E-07   7.9388578678600635E-02
Si   3.8555999999437929E+00   6.4260000005107640E+00   1.4137200000457216E+01  -1.3062798638330264E-06   2.1515247052212860E-02
Si   1.2851999999593708E+00   8.9963999998713327E+00   1.4137200000352395E+01  -1.0324682602202984E-06   3.2099093657741357E-02
Si   5.1407171087862909E-06   1.0281605141134150E+01   5.1412659366851322E-06   4.5798769887639423E-07   1.5907967334991807E-01
Si   2.5703999997720830E+00   1.2852000000441743E+01   5.1405790449344435E-06  -4.5132465142927458E-07   9.3047127752696173E-03
Si   2.5704000002627758E+00   1.0281605141111697E+01   2.5704000004511278E+00   7.2075256962733647E-07   2.3616023409107414E-02
Si   5.1411603958972675E-06   1.2852000000453977E+01   2.5704000003289327E+00   2.4982527868644411E-07   9.5894546243968024E-02
Si   1.2851999998425654E+00   1.1566800000415668E+01   1.2852000004729560E+00   2.4978452626278624E-06   5.5139586905059518E-02
Si   3.8556000004728794E+00   1.4137200000364388E+01   1.2852000002744670E+00  -1.0402743706450224E-06   2.8404869737831857E-02
Si   3.8555999999350949E+00   1.1566799999777116E+01   3.8556000004187951E+00  -4.8245596584450823E-07   2.6620204542379688E-02
Si   1.2851999998905324E+00   1.4137200000430507E+01   3.8556000004333661E+00  -9.4799645999898985E-07   1.9087953659459933E-01
Si   5.1406886634590595E-06   1.0281605140662764E+01   5.1408051406596655E+00  -5.8311324124815656E-07   1.5987617046302816E-01
Si   2.5703999999772926E+00   1.2852000000285786E+01   5.1408051410681646E+00   4.7442198480851516E-07   6.0530856603568505E-03
Si   2.5703999999639557E+00   1.0281605140643746E+01   7.7111999998727869E+00   3.7699829258386330E-07   1.5470841882962345E-02
Si   5.1412538252439454E-06   1.2851999999831026E+01   7.7112000002862251E+00   1.2156705953003666E-07   3.4887731883101472E-02
Si   1.2852000003750828E+00   1.1566799999892902E+01   6.4259999998933983E+00   2.3470940582193123E-06   9.2712189518826038E-02
Si   3.8555999998020298E+00   1.4137199999823705E+01   6.4259999999773418E+00  -1.0180394669490056E-06   7.9709755773544763E-02
Si   3.8556000003790869E+00   1.1566800000487190E+01   8.9964000005065845E+00  -1.0793426259425587E-06   1.5411995459973932E-01
Si   1.2852000002858015E+00   1.4137200000336172E+01   8.9964000004219447E+00  -7.5991683434750712E-07   1.2658217167442815E-01
Si   5.1411891976911371E-06   1.0281605140777609E+01   1.0281605140717250E+01  -2.9120053390840894E-07   5.1953554441657834E-02
Si   2.5704000003393870E+00   1.2852000000280080E+01   1.0281605140735790E+01   3.6492275601318624E-07   4.7285002565753811E-02
Si   2.5704000002743688E+00   1.0281605141201029E+01   1.2852000000445086E+01  -2.7365392085698659E-07   1.7229643629544636E-01
Si   5.1407780327869858E-06   1.2852000000370419E+01   1.2852000000305246E+01   6.1932182671142755E-07   5.4422957729607133E-02
Si   1.2852000002974526E+00   1.1566799999755077E+01   1.1566799999946658E+01   2.8452278719726110E-06   1.0650173955941419E-02
Si   3.8556000003019220E+00   1.4137199999997160E+01   1.1566800000376066E+01  -9.1909915145294008E-07   4.9137887672004660E-03
Si   3.8555999998574135E+00   1.1566800000476693E+01   1.4137199999841686E+01  -1.3609506313017050E-06   8.9161081554908275E-02
Si   1.2851999998566250E+00   1.4137200000434870E+01   1.4137200000470500E+01  -9.9275810772070372E-07   1.2115274000358543E-01
Si   5.1408051413054059E+00   5.1411344089780623E-06   5.1406866370850178E-06   1.4389336389086793E-07   1.1223385895550410E-01
Si   7.7111999997505860E+00   2.5704000003493386E+00   5.1411873900482599E-06   3.3988910130844374E-07   2.1365067853174803E-02
Si   7.7112000003805239E+00   5.1412981190518671E-06   2.5704000002718868E+00  -1.0816812245906249E-07   8.6168192216876521E-03
Si   5.1408051410854902E+00   2.5704000003212411E+00   2.5703999999737182E+00   3.8633311660873915E-08   3.9513551106779926E-02
Si   6.4260000005035893E+00   1.2851999998617933E+00   1.2852000004211792E+00   2.6475461551989099E-06   4.6919312627365380E-02
Si   8.9964000004944893E+00   3.8556000004272186E+00   1.2852000002626081E+00  -4.8700060695239245E-07   1.2659055290714430E-01
Si   8.9963999999261031E+00   1.2851999998806749E+00   3.8555999998570547E+00  -1.2641855420270076E-06   1.1746174473361108E-01
Si   6.4259999999647963E+00   3.8555999999682684E+00   3.8556000005032569E+00  -8.7188144348715468E-07   1.6801959306239178E-02
Si   5.1408051410767790E+00   5.1405531575098094E-06   5.1408051412776166E+00   7.1143374658078073E-07   8.3308557372767360E-03
Si   7.7111999999010763E+00   2.5704000003178993E+00   5.1408051406628559E+00  -4.7104417078003280E-07   4.0974135256825722E-02
Si   7.7112000004755474E+00   5.1410689257612129E-06   7.7111999997755873E+00   2.1350356416149907E-07   1.2656590296585135E-02
Si   5.1408051411858162E+00   2.5703999999635587E+00   7.7112000004267749E+00  -5.7582044910020613E-08   7.2423367451769721E-02
Si   6.4259999998046107E+00   1.2852000003053197E+00   6.4259999998444419E+00   2.3214396063231391E-06   1.0422076311626102E-01
Si   8.9963999999609641E+00   3.8555999999662456E+00   6.4259999999983277E+00  -9.9568784861503445E-07   1.8606231558561736E-02
Si   8.9964000004732743E+00   1.2851999999765042E+00   8.9963999999810671E+00  -6.4536015109695199E-07   2.0294548220003778E-02
Si   6.4260000003589504E+00   3.8556000004663713E+00   8.9964000003122049E+00  -7.8001204251165746E-07   9.5502661060593907E-02
Si   5.1408051405849182E+00   5.1406460413649560E-06   1.0281605141266024E+01   6.8653816409636192E-08   2.5348488554018774E-02
Si   7.7111999998939522E+00   2.5704000004050380E+00   1.0281605141248834E+01   5.3142165690189813E-07   6.0798435175909743E-02
Si   7.7112000002742738E+00   5.1412026818573200E-06   1.2852000000369273E+01   6.5492988454707302E-07   1.0927706855861387E-01
Si   5.1408051406445674E+00   2.5703999997666327E+00   1.2851999999820881E+01   1.7475019165047456E-07   1.5530182203627507E-01
Si   6.4259999998737420E+00   1.2852000004902200E+00   1.1566799999812217E+01   2.7653937220151192E-06   5.2658266346474740E-02
Si   8.9963999997485953E+00   3.8555999998932164E+00   1.1566800000476594E+01  -9.8287071192970643E-07   1.0024935566400660E-01
Si   8.9964000003175926E+00   1.2852000003964574E+00   1.4137199999963977E+01  -1.0032770578760619E-06   7.9337963075077650E-02
Si   6.4259999998273134E+00   3.8555999998872617E+00   1.4137200000477785E+01  -8.2218450536686305E-07   3.1695577237283508E-02
Si   5.1408051406570889E+00   5.1408051406664184E+00   5.1406670020169459E-06  -4.6872068892866992E-08   2.3057321165282293E-02
Si   7.7111999999510061E+00   7.7111999997909271E+00   5.1411872530647009E-06   1.6462390428628737E-07   1.3926286300119040E-01
Si   7.7111999998211758E+00   5.1408051405498574E+00   2.5703999999700202E+00   3.0120866334470975E-07   1.4370090096510360E-01
Si   5.1408051406423549E+00   7.7112000003174321E+00   2.5703999997455904E+00  -3.5233354367392167E-07   5.7950400082249089E-02
Si   6.4260000003651330E+00   6.4259999998534694E+00   1.2851999998441432E+00   2.6360696741001277E-06   7.7514449919610998E-02
Si   8.9964000003943259E+00   8.9964000004346065E+00   1.2852000004025159E+00  -9.9741255077390178E-07   7.1821565951059110E-02
Si   8.9964000004829643E+00   6.4259999998337429E+00   3.8556000003920947E+00  -3.9421385622517846E-07   1.3305536539259736E-02
Si   6.4260000003382487E+00   8.9964000002818469E+00   3.8556000002701256E+00  -8.9114838530690577E-07   2.2668709729548209E-02
Si   5.1408051412057949E+00   5.1408051406496353E+00   5.1408051405623993E+00  -2.6556048648984643E-07   9.5818639081130225E-02
Si   7.7111999998743705E+00   7.7111999998946841E+00   5.1408051407321311E+00   4.7095482802461675E-07   1.5732442746810343E-01
Si   7.7111999999955492E+00   5.1408051411755196E+00   7.7112000004768815E+00  -1.4518712543321044E-07   7.1924472846971080E-02
Si   5.1408051411604889E+00   7.7111999998468157E+00   7.7111999998336405E+00   2.2363738549913137E-07   1.5756000464220110E-01
Si   6.4259999998351054E+00   6.4260000004182851E+00   6.4260000003749784E+00   2.5494427600136760E-06   2.6549551186160775E-02
Si   8.9963999999899631E+00   8.9963999997938604E+00   6.4260000004058737E+00  -7.8291244332007182E-07   5.5696590223146977E-02
Si   8.9963999998840531E+00   6.4259999997645876E+00   8.9964000003915672E+00  -7.8053610153006048E-07   5.2519711902045081E-02
Si   6.4260000003924258E+00   8.9964000003752815E+00   8.9963999998051296E+00  -9.9027707545218391E-07   4.6139367073309338E-02
Si   5.1408051406090696E+00   5.1408051407895279E+00   1.0281605141299783E+01   9.8303734485938321E-08   7.0648228489371911E-02
Si   7.7111999998254488E+00   7.7112000003062207E+00   1.0281605140577847E+01  -3.7084891779670670E-07   3.2047124621216533E-02
Si   7.7112000003078816E+00   5.1408051411344058E+00   1.2851999999966825E+01  -1.6222357324124914E-07   8.2296089876473424E-02
Si   5.1408051406934154E+00   7.7111999998202556E+00   1.2852000000373328E+01  -5.2869491451446038E-07   8.1953355137516531E-02
Si   6.4259999997603128E+00   6.4260000002976048E+00   1.1566800000312243E+01   2.4525813948628183E-06   9.9568792968566064E-02
Si   8.9963999998878528E+00   8.9964000002682063E+00   1.1566800000325728E+01  -8.3267654282792591E-07   4.2587751025583376E-02
Si   8.9963999997585429E+00   6.4259999999610100E+00   1.4137199999746869E+01  -7.4306545982949501E-07   1.0641538597512866E-01
Si   6.4260000003225786E+00   8.9964000005027920E+00   1.4137199999779858E+01  -8.3779257309402055E-07   6.0768082390632104E-02
Si   5.1408051405444253E+00   1.0281605141137513E+01   5.1407896094860833E-06   3.5915286256127388E-07   1.7554181602159255E-02
Si   7.7111999997622913E+00   1.2851999999933257E+01   5.1412441342121405E-06   1.7262480911384159E-07   9.7888128646142643E-04
Si   7.7112000002700203E+00   1.0281605141059186E+01   2.5704000004935343E+00  -3.1818726586863022E-07   3.2350013283239450E-02
Si   5.1408051406108894E+00   1.2851999999974655E+01   2.5704000004694576E+00  -2.1010823303413417E-08   7.0880633146712516E-02
Si   6.4260000003788766E+00   1.1566800000355347E+01   1.2851999999855865E+00   2.3422078796464518E-06   1.5624176916603961E-02
Si   8.9964000002922120E+00   1.4137200000290969E+01   1.2852000004049333E+00  -6.4312913217179357E-07   1.3188494438046727E-01
Si   8.9964000003735585E+00   1.1566800000345911E+01   3.8555999999607438E+00  -1.0324297248232028E-06   2.7385901602827886E-02
Si   6.4260000003112001E+00   1.4137199999822926E+01   3.8555999999315222E+00  -8.3926670857437102E-07   3.2153415638209344E-02
Si   5.1408051411566120E+00   1.0281605140675158E+01   5.1408051412527946E+00   3.0874452372486871E-07   2.1193639380851564E-01
Si   7.7111999999535854E+00   1.2852000000481818E+01   5.1408051407297872E+00  -1.1393714061114224E-07   6.2724125813650583E-02
Si   7.7112000005136911E+00   1.0281605140659121E+01   7.7111999997772447E+00  -4.1328746380742132E-07   1.6399902139346671E-02
Si   5.1408051412909881E+00   1.2851999999823931E+01   7.7111999998731449E+00  -5.8086485310582248E-07   1.9704884704748273E-02
Si   6.4259999998116895E+00   1.1566800000439098E+01   6.4259999998504709E+00   2.4479293219137332E-06   2.9781401203187088E-02
Si   8.9964000003790723E+00   1.4137200000482451E+01   6.4260000002985702E+00  -9.3270425693958714E-07   8.8263435086075676E-02
Si   8.9964000005122795E+00   1.1566799999880796E+01   8.9964000003474442E+00  -7.2664349204387690E-07   1.3812144483812365E-02
Si   6.4260000004209639E+00   1.4137199999920625E+01   8.9963999999276627E+00  -9.2381889782444659E-07   2.8866373431558144E-02
Si   5.1408051406807997E+00   1.0281605141264636E+01   1.0281605140769754E+01   9.4507877079763603E-09   5.5711095134356986E-02
Si   7.7111999999320826E+00   1.2852000000356229E+01   1.0281605140795032E+01  -2.2363829010885183E-08   9.5951372061711129E-02
Si   7.7112000003689785E+00   1.0281605141127930E+01   1.2852000000267020E+01   3.1043113812856404E-07   4.5590421606557810E-02
Si   5.1408051411798521E+00   1.2851999999905370E+01   1.2851999999954266E+01  -6.2917257537264959E-07   1.4482144533002906E-02
Si   6.4259999998814914E+00   1.1566799999939887E+01   1.1566799999911472E+01   2.4425725575483170E-06   1.2848155577097867E-01
Si   8.9964000003977453E+00   1.4137200000484505E+01   1.1566799999783951E+01  -8.6449561464974067E-07   6.2572995010254748E-02
Si   8.9963999997806390E+00   1.1566800000340907E+01   1.4137200000280977E+01  -6.8516533779927613E-07   3.1921936056828956E-02
Si   6.4259999999551294E+00   1.4137200000466903E+01   1.4137199999797726E+01  -8.3265633499252090E-07   1.7689083148225971E-02
Si   1.0281605140684711E+01   5.1412069545054962E-06   5.1411345772691542E-06   4.3082322642717941E-07   5.6806672384348326E-02
Si   1.2852000000365559E+01   2.5704000003151024E+00   5.1406945710657879E-06  -5.8561674087798110E-07   1.3343606428637944E-01
Si   1.2851999999988692E+01   5.1411795528471722E-06   2.5704000005013348E+00  -5.3596079041540179E-07   1.6244629971743385E-01
Si   1.0281605140643022E+01   2.5704000003248115E+00   2.5703999998161620E+00  -2.9702463422154324E-07   1.1376718202054725E-02
Si   1.1566800000455137E+01   1.2851999997909138E+00   1.2851999998936592E+00   2.5628097688468188E-06   1.9964445443872499E-02
Si   1.4137200000268120E+01   3.8555999999053894E+00   1.2852000003815069E+00  -9.7807508758762651E-07   8.0214282806471415E-02
Si   1.4137199999885837E+01   1.2851999998078929E+00   3.8555999998236636E+00  -9.0536074726088600E-07   3.2326448077988700E-02
Si   1.1566799999766484E+01   3.8555999999892294E+00   3.8556000004489577E+00  -7.4082136247710650E-07   1.0188622371390380E-01
Si   1.0281605141221679E+01   5.1410775113787390E-06   5.1408051411968465E+00  -3.8172478689091349E-07   6.6493838664756486E-02
Si   1.2851999999773218E+01   2.5704000003901428E+00   5.1408051412120592E+00   4.2998777249891873E-07   2.3313622458079466E-02
Si   1.2851999999765269E+01   5.1406984705053038E-06   7.7111999998988745E+00   6.6983769198003529E-08   5.0144868097456337E-02
Si   1.0281605140784109E+01   2.5703999998612490E+00   7.7111999997648057E+00  -2.4394178765874130E-07   2.2913879429120730E-02
Si   1.1566800000286580E+01   1.2851999997537542E+00   6.4260000003966384E+00   2.9531521903436442E-06   1.1382562771646605E-01
Si   1.4137199999755921E+01   3.8556000003318687E+00   6.4259999999950317E+00  -7.3745517958911933E-07   3.3203234478959440E-02
Si   1.4137200000510957E+01   1.2852000003634845E+00   8.9963999997694124E+00  -8.6017105527247395E-07   8.6171222303911610E-02
Si   1.1566800000408243E+01   3.8556000004575388E+00   8.9963999997824367E+00  -9.8051036889756915E-07   8.8383790289266920E-02
Si   1.0281605141254683E+01   5.1411601134529717E-06   1.0281605140651557E+01  -3.3010126809784879E-07   2.5993502571533083E-02
Si   1.2851999999806093E+01   2.5703999998784539E+00   1.0281605140796316E+01   3.5711099011237479E-07   7.1160146388508635E-02
Si   1.2852000000443244E+01   5.1412950615863196E-06   1.2852000000298169E+01   1.2997857989915929E-07   1.2365726959193095E-01
Si   1.0281605140569479E+01   2.5704000004802094E+00   1.2852000000480524E+01  -4.0467031059421288E-07   1.0262126321829150E-01
Si   1.1566800000381434E+01   1.2851999999957571E+00   1.1566799999877595E+01   2.4384699011115174E-06   1.1753475016450973E-01
Si   1.4137199999896566E+01   3.8556000005011604E+00   1.1566800000497922E+01  -6.9508364131110056E-07   1.3285343466954477E-02
Si   1.4137200000450436E+01   1.2851999998438997E+00   1.4137200000415623E+01  -8.0658084389284568E-07   2.0537075171159047E-02
Si   1.1566799999999075E+01   3.8556000004974420E+00   1.4137200000272120E+01  -7.8675166914621286E-07   3.2639898942622557E-02
Si   1.0281605140622469E+01   5.1408051407035629E+00   5.1405543538110149E-06  -1.2939712323856156E-07   4.0474742287768782E-02
Si   1.2852000000258208E+01   7.7111999999465404E+00   5.1411108704681607E-06   4.5542027038436572E-08   6.5889109806657575E-02
Si   1.2852000000325962E+01   5.1408051405680926E+00   2.5704000004158951E+00  -2.6394966035070411E-07   4.1512309380919037E-02
Si   1.0281605141187143E+01   7.7111999998272829E+00   2.5704000003513769E+00   1.6723685236641472E-07   3.0532012830800398E-02
Si   1.1566799999867451E+01   6.4259999999319746E+00   1.2851999999976529E+00   2.2953836498196267E-06   5.0589094001829267E-02
Si   1.4137199999984729E+01   8.9963999997794613E+00   1.2852000004652546E+00  -6.0007050883825741E-07   1.2065577038857618E-01
Si   1.4137199999986315E+01   6.4259999997723396E+00   3.8556000004905959E+00  -8.6455981840316554E-07   7.2102056838818623E-02
Si   1.1566800000473513E+01   8.9963999998281636E+00   3.8555999997459800E+00  -4.4027723511419481E-07   6.5443453463591053E-02
Si   1.0281605140797389E+01   5.1408051410801603E+00   5.1408051406092667E+00  -5.0579854971033456E-08   1.5874239330066067E-01
Si   1.2852000000338649E+01   7.7112000004995842E+00   5.1408051406849795E+00  -1.5142639142595726E-08   4.8701528665440280E-02
Si   1.2851999999814876E+01   5.1408051412056501E+00   7.7111999998160732E+00  -7.0934314511106322E-07   2.7166550550958408E-02
Si   1.0281605140712525E+01   7.7112000002688648E+00   7.7112000003136032E+00  -5.6188002695023442E-08   1.1234562188868107E-01
Si   1.1566800000360788E+01   6.4259999997760149E+00   6.4259999998390134E+00   2.6873619551892602E-06   9.4480526258833672E-02
Si   1.4137199999775037E+01   8.9964000004150115E+00   6.4260000004970568E+00  -9.7944389931825526E-07   1.3917224453001201E-01
Si   1.4137199999792475E+01   6.4259999999583686E+00   8.9963999998639093E+00  -8.6422151390763702E-07   9.9807366927862823E-02
Si   1.1566800000292950E+01   8.9963999998363029E+00   8.9964000002939422E+00  -7.4288745555151081E-07   2.4424703743829368E-01
Si   1.0281605140607734E+01   5.1408051407817537E+00   1.0281605141291251E+01  -1.7037167410194343E-07   3.7627429899620674E-02
Si   1.2851999999750371E+01   7.7112000004523349E+00   1.0281605141058851E+01   3.2736953503587074E-07   5.3093875975708561E-02
Si   1.2851999999953993E+01   5.1408051412562976E+00   1.2851999999948367E+01   1.9925616268068325E-07   8.9274942486901779E-02
Si   1.0281605140543267E+01   7.7111999997974179E+00   1.2852000000503482E+01   4.6413163978797911E-08   7.8439740291039881E-02
Si   1.1566799999781438E+01   6.4259999998934108E+00   1.1566800000506724E+01   2.7074348287747796E-06   1.1271386612634107E-01
Si   1.4137200000411310E+01   8.9963999998152122E+00   1.1566799999823330E+01  -1.0470917342075836E-06   4.7845337767317288E-02
Si   1.4137200000299078E+01   6.4260000003927003E+00   1.4137199999836238E+01  -6.2881940010584003E-07   9.4464699644011441E-02
Si   1.1566799999769401E+01   8.9963999998396691E+00   1.4137199999862167E+01  -1.1101325814166785E-06   1.7657755055294647E-01
Si   1.0281605141272644E+01   1.0281605140787425E+01   5.1410821197020589E-06  -3.1557832258499730E-07   4.2405604070918812E-02
Si   1.2852000000324299E+01   1.2852000000262192E+01   5.1411157210445873E-06   2.0260646582670461E-07   5.3029693505608953E-02
Si   1.2851999999956435E+01   1.0281605141102151E+01   2.5703999999528064E+00  -1.5526816987687653E-07   1.0508588560631887E-02
Si   1.0281605141239087E+01   1.2852000000377796E+01   2.5703999998901663E+00  -4.3171758168369934E-07   7.9439622832413334E-02
Si   1.1566799999800855E+01   1.1566799999746037E+01   1.2851999999381820E+00   2.3960794166555388E-06   1.0138222612448926E-01
Si   1.4137200000502332E+01   1.4137199999983247E+01   1.2851999997998971E+00  -1.0595298478577320E-06   1.9277360188755362E-02
Si   1.4137199999906626E+01   1.1566799999821571E+01   3.8555999999933390E+00  -8.9301457339985291E-07   5.2303301585414396E-03
Si   1.1566799999876507E+01   1.4137200000284302E+01   3.8555999998726431E+00  -8.3878069201404060E-07   2.1947584072025950E-01
Si   1.0281605140627660E+01   1.0281605140730679E+01   5.1408051405692650E+00   4.0804687539974793E-07   7.0544440281777226E-02
Si   1.2852000000397501E+01   1.2851999999927871E+01   5.1408051411877551E+00   3.8045756056703794E-07   5.3066582822544318E-02
Si   1.2851999999929918E+01   1.0281605140754509E+01   7.7112000002887351E+00  -5.6833129402633631E-07   1.2037469706448840E-01
Si   1.0281605141224023E+01   1.2851999999848184E+01   7.7111999997900780E+00   8.9215345777660104E-08   1.3280396361150687E-01
Si   1.1566799999917523E+01   1.1566799999842518E+01   6.4260000003279183E+00   2.7863461498078834E-06   1.1585108013319256E-02
Si   1.4137200000279222E+01   1.4137199999833911E+01   6.4259999997847661E+00  -8.3888021062961116E-07   6.6235802315324790E-02
Si   1.4137199999845350E+01   1.1566800000412929E+01   8.9963999998261013E+00  -1.0729477564197509E-06   9.3553378539607920E-02
Si   1.1566799999949881E+01   1.4137200000483224E+01   8.9963999999066111E+00  -8.4476157446999878E-07   8.5804265055078904E-02
Si   1.0281605140627160E+01   1.0281605141172394E+01   1.0281605140649114E+01   1.1478180095281232E-07   1.1270902098625500E-01
Si   1.2852000000429069E+01   1.2851999999924534E+01   1.0281605141211733E+01   1.2714225228194209E-07   1.7380777416125781E-01
Si   1.2852000000505399E+01   1.0281605141260446E+01   1.2852000000365615E+01  -3.5095097761228544E-07   6.5901614817259355E-02
Si   1.0281605140766651E+01   1.2852000000390966E+01   1.2852000000422887E+01   1.3994408165629579E-07   1.5290109961904755E-02
Si   1.1566800000320866E+01   1.1566799999923948E+01   1.1566799999802640E+01   2.4478281042128458E-06   8.8370502373685864E-02
Si   1.4137200000508633E+01   1.4137199999747184E+01   1.1566800000469598E+01  -5.3989092485551282E-07   2.3351496731454421E-02
Si   1.4137199999834937E+01   1.1566799999931467E+01   1.4137199999912934E+01  -6.8995289925766201E-07   5.5343698121528749E-02
Si   1.1566799999939457E+01   1.4137200000369543E+01   1.4137200000306601E+01  -7.6391286363275412E-07   2.6124894738578677E-02
Mo	1.595758086687765E-06	1.841930254331318	16.98728436649261	0.5179919788676912	85677.23356049285
S	1.595159595631417	0.9209637457576891	18.55216873485039	-0.2590995944275827	52038.18862563829
S	1.595159595534125	0.9209637457052777	15.42240000192472	-0.2590995941157166	13352.04585381038
S	1.595362478932153E-06	3.68385774607346	18.55216873517845	-0.2590677382133322	68949.06101029836
S	1.595072425549586E-06	3.683857745984792	15.42240000046734	-0.2590677382793407	30262.91820961059
Mo	1.59515640519449	4.604824254742887	16.98728436812078	0.518064472630325	186904.1841184561
Mo	1.595416049629467E-06	7.367718254431756	16.98728436644354	0.5180186029292857	85677.23356049285
S	1.595159595333942	6.446751745633462	18.55216873376764	-0.2590409512401832	52038.18862563829
S	1.595159595152809	6.446751745877346	15.42240000195038	-0.2590409513650629	13352.04585381038
S	1.595356067717343E-06	9.209645745367576	18.5521687349722	-0.2590683784016461	68949.06101029836
S	1.595370487585001E-06	9.209645746116946	15.4224	-0.2590683784473802	30262.91820961059
Mo	1.595156405186986	10.13061225436475	16.98728436762688	0.5180625090406838	186904.1841184561
Mo	1.595443363118602E-06	12.89350625442061	16.98728436688005	0.5180200253198066	85677.23356049285
S	1.59515959561759	11.97253974564745	18.5521687351744	-0.259041204499141	52038.18862563829
S	1.595159595415595	11.97253974641937	15.42240000224332	-0.2590412038969587	13352.04585381038
S	1.595352395553218E-06	14.73543374549688	18.55216873679323	-0.2590654853560634	68949.06101029836
S	1.595277896657324E-06	14.73543374611481	15.42240000210286	-0.2590654848206286	30262.91820961059
Mo	1.595156405219047	15.65640025483721	16.98728436949824	0.5181946618347606	186904.1841184561
Mo	3.19031759569537	1.841930254952043	16.98728436834917	0.5180383428677811	85677.23356049285
S	4.785475595575946	0.9209637456561928	18.55216873366794	-0.2590951202168865	52038.18862563829
S	4.785475595436221	0.9209637462514996	15.42240000169203	-0.2590951206854948	13352.04585381038
S	3.190317595420939	3.683857745512263	18.5521687354021	-0.2590354576592029	68949.06101029836
S	3.190317595277179	3.683857745423325	15.42240000037524	-0.2590354581333356	30262.91820961059
Mo	4.785472405196983	4.604824254844836	16.98728436961723	0.5180750724474246	186904.1841184561
Mo	3.190317595316793	7.367718254512506	16.98728436839566	0.5180649612921284	85677.23356049285
S	4.785475595235644	6.446751745681467	18.55216873489016	-0.2590364786687394	52038.18862563829
S	4.785475595440823	6.446751745733301	15.42240000188481	-0.2590364786994312	13352.04585381038
S	3.190317595360928	9.209645745485499	18.55216873701308	-0.2590360987301947	68949.06101029836
S	3.190317595396664	9.209645745375674	15.42240000179626	-0.2590360979003448	30262.91820961059
Mo	4.785472405005991	10.13061225477077	16.98728436783129	0.5180731083041401	186904.1841184561
Mo	3.19031759565586	12.89350625438419	16.98728436805482	0.5180663830075432	85677.23356049285
S	4.785475595703129	11.97253974571854	18.55216873323474	-0.2590367311880435	52038.18862563829
S	4.785475595120898	11.9725397462486	15.42240000027583	-0.2590367320063338	13352.04585381038
S	3.190317595371925	14.7354337460802	18.55216873488827	-0.2590332104387505	68949.06101029836
S	3.190317595345312	14.73543374613812	15.4224000017993	-0.2590332104796191	30262.91820961059
Mo	4.785472404888847	15.65640025435125	16.98728436808078	0.518205268462955	186904.1841184561
Mo	6.380633595371651	1.841930255011553	16.98728436843378	0.5180456779667217	85677.23356049285
S	7.975791595573315	0.9209637456527072	18.55216873530302	-0.2590946329879031	52038.18862563829
S	7.975791595102415	0.9209637462069701	15.42240000010795	-0.2590946331258319	13352.04585381038
S	6.380633595334086	3.683857745449238	18.55216873652699	-0.2590355990921376	68949.06101029836
S	6.380633595033033	3.683857745450396	15.42240000057018	-0.2590355990768822	30262.91820961059
Mo	7.975788405191897	4.604824254319898	16.98728436826809	0.5180747282847866	186904.1841184561
Mo	6.380633595306255	7.367718255114742	16.98728436648402	0.5180722970223828	85677.23356049285
S	7.975791595246188	6.446751745712919	18.55216873323509	-0.2590359904879795	52038.18862563829
S	7.975791595440458	6.446751746324304	15.42240000163529	-0.2590359904137491	13352.04585381038
S	6.380633595713402	9.209645745558964	18.55216873686727	-0.2590362398039661	68949.06101029836
S	6.380633595098931	9.209645745560316	15.42240000185574	-0.2590362386246543	30262.91820961059
Mo	7.975788404967028	10.13061225437723	16.98728436765543	0.5180727650819188	186904.1841184561
Mo	6.380633595717499	12.8935062544063	16.98728436815885	0.518073718527897	85677.23356049285
S	7.975791595334596	11.9725397456586	18.55216873469776	-0.2590362436015914	52038.18862563829
S	7.975791595077651	11.97253974575719	15.42240000200066	-0.2590362434786853	13352.04585381038
S	6.380633595342978	14.73543374608586	18.55216873653617	-0.2590333515799097	68949.06101029836
S	6.380633595274269	14.73543374617588	15.42240000145677	-0.2590333512459191	30262.91820961059
Mo	7.975788404970351	15.6564002542926	16.98728436914809	0.5182049244350013	186904.1841184561
Mo	9.570949595636799	1.84193025505513	16.98728436641636	0.5180453334123571	85677.23356049285
S	11.16610759536821	0.9209637457252172	18.55216873322861	-0.2590947717534737	52038.18862563829
S	11.16610759547266	0.9209637462796442	15.42240000073659	-0.2590947725300872	13352.04585381038
S	9.570949595744509	3.683857745378405	18.55216873551793	-0.2590351109362876	68949.06101029836
S	9.57094959535439	3.683857746136474	15.42240000185426	-0.2590351102086776	30262.91820961059
Mo	11.16610440519402	4.604824254722777	16.98728436815431	0.5180820647210993	186904.1841184561
Mo	9.570949595429783	7.367718254843403	16.98728436665051	0.5180719529696329	85677.23356049285
S	11.16610759556787	6.446751745752459	18.55216873371565	-0.2590361303679112	52038.18862563829
S	11.16610759509055	6.446751745819319	15.4224000003364	-0.259036130654569	13352.04585381038
S	9.570949595339512	9.209645745513658	18.5521687355022	-0.2590357514870147	68949.06101029836
S	9.570949595003405	9.209645745536513	15.42240000013279	-0.2590357511634256	30262.91820961059
Mo	11.16610440517963	10.13061225478137	16.98728436808511	0.5180801003592537	186904.1841184561
Mo	9.570949595684615	12.89350625507488	16.98728436783614	0.5180733745854997	85677.23356049285
S	11.16610759531926	11.97253974613058	18.55216873337375	-0.2590363831466211	52038.18862563829
S	11.1661075951988	11.9725397458412	15.42240000047801	-0.2590363834929681	13352.04585381038
S	9.570949595335001	14.7354337459413	18.55216873501288	-0.2590328628264889	68949.06101029836
S	9.570949594944555	14.73543374617579	15.42240000150827	-0.2590328631504573	30262.91820961059
Mo	11.16610440528623	15.65640025435829	16.98728436972902	0.5182122577324062	186904.1841184561
Mo	12.76126559565593	1.841930254906434	16.98728436803641	0.5180559389114414	85677.23356049285
S	14.35642359562504	0.9209637457553458	18.55216873367706	-0.2590624965110297	52038.18862563829
S	14.35642359551037	0.9209637464362825	15.42240000005225	-0.2590624973789186	13352.04585381038
S	12.76126559572515	3.683857745516173	18.55216873553174	-0.2590306372355933	68949.06101029836
S	12.76126559536681	3.683857746013114	15.42240000140754	-0.2590306370899516	30262.91820961059
Mo	14.35642040492333	4.604824254337775	16.98728436956227	0.5181284292086135	186904.1841184561
Mo	12.76126559567987	7.367718254984763	16.98728436643912	0.5180825549068953	85677.23356049285
S	14.35642359523999	6.446751746242691	18.55216873532312	-0.2590038558024172	52038.18862563829
S	14.35642359553335	6.446751746312168	15.42240000208068	-0.2590038552922618	13352.04585381038
S	12.76126559579131	9.209645745475882	18.5521687348356	-0.2590312780101653	68949.06101029836
S	12.7612655950056	9.209645746063845	15.42240000038384	-0.2590312779062645	30262.91820961059
Mo	14.35642040531314	10.13061225481149	16.98728436804419	0.5181264642062491	186904.1841184561
Mo	12.76126559574679	12.89350625510769	16.98728436649748	0.5180839751459114	85677.23356049285
S	14.35642359557399	11.97253974636148	18.55216873471356	-0.2590041084742429	52038.18862563829
S	14.35642359507399	11.97253974628921	15.4224000002171	-0.2590041083568719	13352.04585381038
S	12.76126559571169	14.73543374595194	18.55216873632678	-0.2590283908493891	68949.06101029836
S	12.76126559540019	14.73543374598218	15.42240000052338	-0.2590283909242492	30262.91820961059
Mo	14.35642040500096	15.65640025417683	16.98728436949114	0.5182586224708228	186904.1841184561