Al  O 
 1.0000000000000000
     2.9727748073093871    0.0008818393050834    0.0000000000000000
    -0.0008574089335847    7.6550267366843503    0.0000000000000000
     0.0000000000000003   -0.0000000000000000   21.5000000000000000
Al  O 
   8  12
Cartesian
  2.2493624752119166  5.2043371420361622  7.2374852484260819
  2.2600239320054323  7.1911562481562692 11.3083386292102190
  2.2607160604656689  4.4501019938190591 13.1259751009388896
  2.2554743440821068  2.5664472167533399  9.5076759700876305
  0.7752300024114458  6.9484245694282025 14.2627544302074725
  0.7723494890154343  4.9662736997534722 10.1921549069738901
  0.7668249661685292  0.0501453670251856  8.3718489902507844
  0.7744440595448706  1.9343224439945186 11.9907120115138675
  2.2595333396838835  4.5227885252042208  9.0045436071875056
  2.2614467151063393  7.3169057543347602 14.9509791024726724
  2.2608981434589497  5.3410386175110567 11.4988242067073472
  2.2522619011670884  7.0466185322443913  7.6755530613966236
  2.2624101596412935  2.6974149301000092 12.9135385238855012
  2.2620218331654649  1.2661995611975094 10.8681106189413903
  0.7631520972697958  4.8384368760511691  6.5470323477075718
  0.7743639403067800  5.1055856194735174 13.8259553677048217
  0.7683584793141844  6.8181408146445541 10.0014991390844425
  0.7712979373241653  3.2353513584033666 10.6312861644046830
  0.7695760330823499  1.8025820117888458  8.5833528643784973
  0.7794116666501006  7.6292046512846783 12.4951771982126445
