Al  O 
 1.0000000000000000
     2.9720298633987623   -0.0000073331134266    0.0000000000000000
    -1.4831115873010894    7.0985004611052887    0.0000000000000000
     0.0000000000000021    0.0000000000000004   18.5000000000000000
Al  O 
   6   9
Cartesian
  0.0598122491947616  6.1916480303290529 10.2231867983769309
  1.5487440214527477  4.3008170959505492 11.5839497616962674
  1.5465586046437916  3.5483967163583383  8.3383977595394096
  0.0661928152332101  6.0565828058620541  7.0772082126800111
  0.0529018375096770  1.7943055197199713 10.9016246400279897
  0.0606466192504369  1.1797106585307979  7.7437238177611718
  1.5393258525319831  2.5056681548567319 11.6429122661345215
  0.0516466987234566  2.4948087786907918  9.2738187796273728
  0.0617466368358252  4.4023952848075139  7.5769897283100285
  1.5519588480879978  6.7656144341544513  6.4847515776238076
  1.5465978677179402  4.8827646003713401  9.8455294107782532
  0.0560327995077412  0.0660141014172296 10.9002593859972361
  0.0629216692823682  5.0406016631147921 12.0287238673716335
  1.5448469504597242  2.0820436788060981  7.2079899313909364
  1.5455386059644356 -0.0184492379177619  8.6085109320641315
