Al  O                                   
   1.00000000000000     
     2.9286240217004327    0.0000000000000000    0.0000000000000000
     0.0000000000000000    5.6540182492224140    0.0000000000000000
     0.0000000000000000    0.0000000000000000   16.9755925069121965
   Al   O 
     4     6
Direct
  0.5000000000000000  0.9854577582780664  0.5690736979166928
  0.5000000000000000  0.4861508391413025  0.4309263020833072
  0.0000000000000000  0.9862624708156034  0.4015295124145766
  0.0000000000000000  0.4853461266037584  0.5984704875854234
  0.5000000000000000  0.2695951114200952  0.6148777851205978
  0.5000000000000000  0.2020134859992737  0.3851222148794093
  0.0000000000000000  0.4857151001400553  0.4899706462894358
  0.0000000000000000  0.9858934972793136  0.5100293537105571
  0.5000000000000000  0.7706153258466131  0.3850866967465407
  0.5000000000000000  0.7009932715727558  0.6149133032534593
