Al  O 
 1.0000000000000000
     5.7458841511807721    0.0004635805849923    0.0000000000000000
    -0.0001689121956943    5.5605240561066864    0.0000000000000000
     0.0000000000000002    0.0000000000000001   23.0000000000000000
Al  O 
  16  24
Cartesian
  5.6811758365653233  3.1330111271326668 16.1782461141051748
  1.3685304410394565  0.3511950427293689 15.5133438043448688
  2.8018203578229128  3.1338430440274951 16.1767679581469181
  4.2415062752672297  0.3539355941067392 15.5356259432291139
  0.0046278428947490  0.3543861389052568 12.5425586952740424
  4.2406210213428688  3.1362611582911075 13.3797333395039484
  2.7358130061602379  0.3541430549622836 12.5444094282228829
  1.3678347406629814  3.1329758296342800 13.3145806942705942
  4.2406879328913849  4.4693122928966647 10.5339075828243001
  5.6765198004630708  0.3546000015157124  8.6373869448694283
  4.2405796078745039  3.1351283610351781  7.4408337133475477
  1.3671759989472234  1.7548090836850589  6.8025001106513816
  4.2395114322025655  1.7972949681763171 10.5341281332471830
  1.3683947923851869  3.1354983756362520  9.8182006535796056
  2.8106617681343757  0.3549558374138994  8.6343184012764151
  1.3692207378586885  4.5132004315763314  6.8024220726412530
  5.6831791601040349  3.1323860412776434 14.3414727674996385
  2.7971017957428654  3.1340645273071921 14.3413377717595765
  5.6669094025749072  0.3534942129572638 14.4768746323909152
  4.2411665492678097  1.9090865002288797 16.4180129309828544
  2.8161099425071443  0.3532479475421137 14.4786472306699707
  1.3694199607887081  1.9036941270789929 16.4098666862104494
  4.2394889383775309  4.3582883207967127 16.4188651470298232
  1.3659884370099613  4.3601653475375590 16.4118674274331120
  4.2431016247268571  1.6165347707979447 12.4345632515810269
  1.3681369922133855  4.6631683466340785 12.4638072091794214
  1.3714232629426801  1.6051757679057725 12.4603668163919021
  4.2392390763673689  4.6560916848770502 12.4378854038076323
  3.0039569601215095  0.3535184455202003 10.5177067810412783
  0.1546299328269682  0.3511643545302338  6.7955192409448824
  2.6265142461966025  3.1355043673004945  6.6261740329623384
  1.3700956832779294  4.5956914502085198  8.7090292070741295
  4.2371119527909391  1.6690484967060777  8.5882731150372482
  5.4778380378913996  0.3533125355106618 10.5214360250912371
  2.9673729517566074  3.1347767106122828 10.5473428881349385
  0.1069611569309089  3.1342491468585716  6.6260191955536989
  2.5852150588752569  0.3549668441081748  6.7926067248665936
  1.3660525025822929  1.6759814005656166  8.7071429546433965
  4.2409724360793524  4.5973156507749167  8.5900155933015814
  5.5112436613943379  3.1334768091312748 10.5399559893089432
