Al  O 
 1.0000000000000000
     5.5591726698564203   -0.1111448482309272    0.0000000000000000
    -1.5436691183453501    2.5453477046313182    0.0000000000000000
     0.0000000000000055   -0.0000000000000008   17.0000000000000000
Al  O 
   4   6
Cartesian
 -0.3162542788829238  1.3260301058122417 10.5867467556667236
  2.4728804868004217  1.2677267063410060  6.4123676130573077
 -0.5152627474227728  1.1945145536114226  7.4073214264346889
  2.2577899169463325  1.1408692343766926  9.5918245670019751
  3.8851248014072519  0.3838565578972548  5.9195526892523374
  0.4460453955827389  1.7781912914164923  8.9448569801485984
  3.7787519837877586  0.3227837690542085 10.3397948585191397
  1.0072830096996599  0.3778282979043702  6.6608016743528129
  1.0939303362013317  0.4399949015790021 11.0799978409846336
  3.2286280262574190  1.7214348906736316  8.0555986028746336
