Al  O                                   
   1.00000000000000     
     2.9669707480083494    0.0013433669673273    0.0000000000000000
    -0.0016349075190724    4.8876616883071549    0.0000000000000000
     0.0000000000000000    0.0000000000000000   18.3712306954997047
   Al   O 
     4     6
Direct
  0.2688468057776348  0.5112185183358307  0.4326510342907213
  0.7663371601235127  0.0665905604708783  0.3886964230629104
  0.7662877545823221  0.3968913547568533  0.5673768639295105
  0.2671812407461402  0.8418186660860840  0.6113531667283638
  0.7696224885486131  0.7123634425074314  0.3985223635817334
  0.7649019036013343  0.2708984767127376  0.4711409962949418
  0.2662484893203825  0.2210372900128661  0.3581440560708060
  0.2679834672451804  0.6373343471417314  0.5288816165176655
  0.2653208181804558  0.1959303286496450  0.6012617253273476
  0.7670976342616171  0.6881924750533130  0.6419785709680212
