Al  O                                   
   1.00000000000000     
     5.4965239930366971   -0.0652660005344810   -0.3399607283908115
    -1.5057422654951287    2.4865641453389324   -0.0041634681335796
    -0.4586833620587901   -0.2771224981934242    7.4531682725206547
   Al   O 
     4     6
Direct
  0.1088896704676086  0.5134194312259245  0.8854117527296723
  0.4664347244999354  0.3687489212374800  0.2347782890781288
 -0.0336645974671441  0.3679918052295479  0.4363947621440882
  0.5457315084927881  0.4493121781193576  0.7035637114666884
  0.6703904417825576  0.0721850450805845  0.2273024936881247
  0.2552208561447576  0.6581702259606285  0.6708875309642600
  0.7364069437370017  0.1406405007561818  0.8311679111574279
  0.1708788615070619  0.0720523452248459  0.3554961646309535
  0.2555098489804588  0.1600679044307573 -0.0032817102349020
  0.7495293135134526  0.6524216812641358  0.5200884270910467
 
  0.00000000E+00  0.00000000E+00  0.00000000E+00
  0.00000000E+00  0.00000000E+00  0.00000000E+00
  0.00000000E+00  0.00000000E+00  0.00000000E+00
  0.00000000E+00  0.00000000E+00  0.00000000E+00
  0.00000000E+00  0.00000000E+00  0.00000000E+00
  0.00000000E+00  0.00000000E+00  0.00000000E+00
  0.00000000E+00  0.00000000E+00  0.00000000E+00
  0.00000000E+00  0.00000000E+00  0.00000000E+00
  0.00000000E+00  0.00000000E+00  0.00000000E+00
  0.00000000E+00  0.00000000E+00  0.00000000E+00
