 O Al                                   
   1.00000000000000     
     5.6955481335755369    0.0017147515531650    0.0433871835145970
     0.0017845739979594    5.6954777652537150    0.0431788775711468
     0.1868108752735115    0.1852899915798691   23.2433845865038329
   O    Al
    48    32
Direct
  0.2318344331700130 -0.0087165597813333  0.1256309772299891
  0.7828395947980379 -0.0141497694505477  0.0958031895433081
 -0.0014040004582919  0.7640987601714565  0.8749278820926383
 -0.0043114948873051  0.2269815116374905  0.8802585361985772
  0.2900770196423650 -0.0028210355459218  0.2951591224325348
  0.7092128749951224  0.0033625380508712  0.3025397706805308
  0.0112410846210027  0.7204660744624634  0.7090804738918395
  0.0113848901489015  0.2638346289320384  0.7029453470256497
  0.2355519461750682  0.0017133481390844  0.4581162942308167
  0.7724712135951421  0.0044630522880647  0.4526780651289379
  0.0274679857579501  0.7496080994360462  0.5388022377907281
  0.0271022282887230  0.2378847361540478  0.5398006961958223
  0.2798384404322014 -0.0105065266556482  0.6239152349731342
  0.7367248240984550 -0.0103920687386160  0.6301627317535881
  0.0002388172832926  0.7313176941756578  0.3779941238630293
  0.0009118526543056  0.2800055497262151  0.3740499146519002
  0.2511467831393845 -0.0276480421641841  0.7941620330535651
  0.7632871778539674 -0.0269232960091640  0.7932256629129811
  0.0088397536870669  0.7692875225421812  0.2074862233313241
  0.0139375357806822  0.2184473341892753  0.2372138480589495
  0.2689118453097321 -0.0008250647899784  0.9549293342786485
  0.7197819616253787 -0.0018207293557852  0.9588923302123100
  0.0031678748293584  0.7092766873852772  0.0377433478249257
 -0.0036647333632311  0.2902836344714408  0.0303863812987488
  0.2299774451131343  0.5241287672582888  0.1226092359321020
  0.7417419397130792  0.5301300324631197  0.1229008179824575
  0.5051730370349308  0.7715373162482453  0.8775553807432990
  0.5026022904250602  0.2361348503816082  0.8752879216077196
  0.2785178685248306  0.5160283240355710  0.2963450847260070
  0.7345551692378733  0.5134125808093963  0.2938668406264193
  0.5099677571452756  0.7140337470496005  0.7044278519522550
  0.5101465126780392  0.2521869122413019  0.7072283563508209
  0.2276591632398957  0.4952701888630187  0.4554139800026541
  0.7632062180399932  0.4979247561057876  0.4576518362741919
  0.4870986699926987  0.7503692313247298  0.5432903796424625
  0.4868551659743420  0.2379373852537484  0.5433341662607739
  0.2867213923737563  0.4904573305427081  0.6285007826625548
  0.7483906527210824  0.4904285367851872  0.6258498549895920
  0.5004371969383102  0.7289670270378152  0.3767755339014599
  0.4991424768742619  0.2839553920706223  0.3741290369779979
  0.2500963485388961  0.5126523909242817  0.7897838668095112
  0.7627728293892448  0.5134076982044242  0.7896721816665697
  0.4759372104786134  0.7703403709859847  0.2104490477917811
  0.4700074820862880  0.2586983165163964  0.2101111621674268
  0.2710014094363108  0.4988996336447267  0.9561198958035024
  0.7158122209527510  0.5001199472486951  0.9588166421417152
  0.4841754077348924  0.7209816729581907  0.0366962428480278
  0.4866297926110472  0.2649072062561179  0.0392372234617920
 -0.0687095161071550  0.0000521227412087  0.0196865272402542
  0.4886220176976825  0.4964871382014548  0.5011152647946600
 -0.0006989247225145  0.0693959547084785  0.3130575998724724
  0.0071144255960208 -0.0063062371801529  0.6665648052764560
  0.0143130521806616  0.5157960380063705  0.2500852355382803
  0.5093882399887356 -0.0240573599200542  0.7504820124718262
  0.0245554142951911  0.4917900800938009  0.5825856296069233
  0.5082972911309034  0.0058083988924277  0.4135112751508345
 -0.0062242068355302  0.4912491512058274  0.9194307960295409
  0.4855121400079125 -0.0145340421694960  0.0831168513554413
  0.4833027200144934  0.5171704881178082  0.1665059787033104
  0.5040452412897600  0.5109948442156834  0.8318776755954516
  0.2428532466827532  0.0183022771872473  0.2043720887099133
  0.0071446852982592  0.7422197668294437  0.7919740373166047
  0.2577307593870283 -0.0062568914612035  0.5410540279744599
 -0.0143543142177209  0.7603788450341527  0.4601871372547939
 -0.0129092382516293  0.2424818069108189  0.4615975632415145
  0.2400955960000553  0.0142952573559769  0.8727095926678847
  0.7581051947995147  0.0120242825866483  0.8714897438217089
 -0.0176309560913062  0.7574394799090457  0.1287063559459451
  0.2360119723751874  0.4862383584848349  0.0460101253862033
  0.7478535710599929  0.4893783769511926  0.0457343921022854
  0.4857038083065731  0.7516155077639215  0.9575362974243223
  0.4866551118719632  0.2458768316120487  0.9580105217515754
  0.2476026974027911  0.5139757867933782  0.3754597988444699
  0.7536539525521453  0.5134281960397774  0.3749517895535216
  0.5261806866552383  0.7444922609698130  0.6216170844282413
  0.5269319230726685  0.2348792518829871  0.6209322702441484
  0.2562813461758849  0.4745196517368289  0.7113528185007948
  0.7656143647191067  0.4736652737003629  0.7120670456596637
  0.5125563002868796  0.7637395021809673  0.2870714651802026
  0.5107358309465231  0.2521519061384028  0.2872691103787148
