Al  O                                   
   1.00000000000000     
     4.8462665526862194   -0.0991157315571572   -0.1557002036317081
    -2.5081501756763562    4.3452642894289495    0.3113111464647697
    -0.2794375631773323    0.4929208488388764    9.0396852164135275
   Al   O 
     8    12
Direct
  0.4493175047978372  0.5065324463498646  0.5116592219425822
  0.4591946745102260  0.2801273071334479  0.0977432300422937
  0.8034612195895013  0.9263660908245258  0.2584230977999348
  0.1008038102930813  0.5824886899277884  0.2637747906085783
  0.7464775801138591  0.1549232882059130  0.5118264668851320
  0.8027980451278052  0.4408529427964434  0.7650514119229835
  0.4578945018776821  0.7428198280088670  0.9256576355704983
  0.1002261120913852  0.0822814190030589  0.7597587693628989
  0.4553093569219247  0.3873200895712938  0.8937012910419122
  0.4561916171208898  0.6328800402577498  0.1298440280336942
  0.7653576526996104  0.5327546121283145  0.3848073991821251
  0.1161815052717452  0.7530139236142570  0.8628650709327299
  0.4696697005725142  0.8408270251254076  0.3892509780043389
  0.8018303930064054  0.0967655427293756  0.8720348352403623
  0.7653118524987491  0.7966865379543946  0.6386873964038657
  0.0880078476438591  0.2416531027239229  0.3866145801036023
  0.1175571841978734  0.9280016740466386  0.1606691270540797
  0.4699063218582026  0.1929717087956776  0.6343873658815830
  0.8028470403493734  0.2698774992170514  0.1514244802615962
  0.0877808495875770  0.4098996933627903  0.6368649616190708
