Al  O                                   
   1.00000000000000     
     5.6201028496742831    0.0204723125147799    0.0265750849809293
    -2.7907950441613623    4.8760644854926287   -0.0579369179722576
     0.0643839001456925    0.0417759951955776   13.6047745808799814
   Al   O 
    16    24
Direct
  0.3365089538572896  0.7068206008318025  0.7961181476550161
  0.3454241441990012  0.6969527550654441  0.5507582283586774
  0.6796654392942407  0.3638381272281444  0.4565030392506639
  0.6888659204851224  0.3550813947636763  0.2110564192959920
  0.0102438000998633  0.0335582677908527  0.1259127429578909
  0.0154722919896291  0.0289027121673611  0.8813674222929597
  0.3350741429066713  0.1953153177815532  0.6636461536327367
  0.6644147686813363  0.3797168700721564  0.8432021632637416
  0.8455285608375150  0.1968156746343452  0.6642443550190653
  0.6893313561849095  0.8654859626815248  0.3437453119431736
  0.8464101825709521  0.7065540644103837  0.6634809275919182
  0.1791240991089447  0.8642981832378573  0.3428841811185086
  0.1785551327579017  0.3545577409322676  0.3437755489093863
  0.0133781115297769  0.5315684396685055  0.0035566435273085
  0.3613093779756696  0.6825606434343158  0.1639254453087527
  0.5132214519712621  0.0317729246018486  0.0036220157953273
 -0.0199785399784225  0.5198950113117957  0.7490753249173627
  0.5175246481743853  0.5253819115818783  0.7509078840715812
  0.0082100596935383  0.0342602127836286  0.7454621000557573
  0.1752871476145471  0.8659783909434813  0.5970628358061217
  0.6754686413205410  0.3658769094910490  0.5911018485646291
  0.5228461994124037  0.0624916139129561  0.7490223514679293
  0.6805732389357001  0.8673379901855661  0.5969401770831257
  0.1747023555186239  0.3616470181711742  0.5969298258090195
  0.3441640614191104  0.1935023535063485  0.4103978800423962
  0.8494672469659217  0.1945083763704482  0.4103590434773789
  0.3489784965882463  0.6947390918081320  0.4161986936687228
  0.5075269378465458  0.5360796608272377  0.2564171776960223
  0.0165774725763411  0.0269563499779339  0.2617887374446837
  0.8500934533295489  0.6991864159100425  0.4103606058551407
  0.0451317320763676  0.5414491396946837  0.2581013709973116
  0.5022042360093882 -0.0011817018742086  0.2581469955010202
  0.6667658558295269  0.8754953474631181  0.0894046039962226
  0.1905803978540032  0.8542341360014938  0.0871991530772341
  0.6919846469088891  0.3537572469150876  0.0826605572488724
  0.8356125582537960  0.2088727819407751  0.9200073389972770
  0.3345563226262717  0.7101319367077218  0.9245105436561687
  0.1689085256476383  0.3770403085351299  0.0893202202760338
  0.3590766308891644  0.1878084435079045  0.9177821900955261
  0.8571054739149279  0.6855867662552629  0.9178635014947900
