Al  O                                   
   1.00000000000000     
     7.9731170768235753    0.0000000000000000    0.0417575351477053
     0.0000000000000000   11.7517701970304280    0.0000000000000000
     0.0290729754407855    0.0000000000000000    8.0156659314066552
   Al   O 
    32    48
Direct
  0.9928491717662307  0.0854976712251279  0.1121025400661634
  0.0071508282337691  0.5854976712251279  0.8878974599338366
  0.0040562187096086  0.9151278893786059  0.3872271108151975
  0.9959437812903914  0.4151278893786060  0.6127728891848018
  0.2442568977635609  0.5844566519704661  0.3630899672874163
  0.7557431022364391  0.0844566519704661  0.6369100327125838
  0.2541226847139348  0.7553295254940005  0.6408996957594117
  0.7458773152860653  0.2553295254940005  0.3591003042405879
  0.2552931181828210  0.2433767508499441  0.8682874406325529
  0.7447068818171795  0.7433767508499441  0.1317125593674471
  0.5052490420966959  0.4194739232379086  0.1146381254844266
  0.4947509579033043  0.9194739232379159  0.8853618745155737
  0.1136556730485907  0.8338262127643731  0.0203180329667488
  0.8863443269514093  0.3338262127643735  0.9796819670332508
  0.1277539063881296  0.3381492874115116  0.2293898255114647
  0.8722460936118632  0.8381492874115116  0.7706101744885350
  0.1065584848317081  0.1660850466702908  0.5009884443384235
  0.8934415151682920  0.6660850466702908  0.4990115556615761
  0.1259944043921686  0.0059212847254293  0.7637576592614355
  0.8740055956078313  0.5059212847254299  0.2362423407385644
  0.3745085980344675  0.6614268353112869  0.0148211218764356
  0.6254914019655324  0.1614268353112869  0.9851788781235642
  0.3685944189297556  0.1561339115712770  0.2329967614532587
  0.6314055810702512  0.6561339115712768  0.7670032385467412
  0.3677275849714128  0.8344844339454573  0.2573325627704585
  0.6322724150285874  0.3344844339454570  0.7426674372295413
  0.3734554972074864  0.3275301569608629  0.4923268415487072
  0.6265445027925133  0.8275301569608629  0.5076731584512927
  0.3843229082202899  0.0096619155478474  0.5158778209048202
  0.6156770917797100  0.5096619155478475  0.4841221790951800
  0.3571180688009684  0.4989848157297939  0.7537203947551105
  0.6428819311990310  0.9989848157297934  0.2462796052448895
  0.1162295619943569  0.9940064361402867  0.9902522295433736
  0.8837704380056433  0.4940064361402939  0.0097477704566265
  0.1291525405811445  0.1686028138968772  0.2528489402659028
  0.8708474594188556  0.6686028138968773  0.7471510597340972
  0.1377573384420583  0.0052040194812724  0.5108771627540881
  0.8622426615579415  0.5052040194812720  0.4891228372459119
  0.1340967042376102  0.1607927766443443  0.7312098830165590
  0.8659032957623898  0.6607927766443442  0.2687901169834408
  0.1172918135919355  0.3200901849597670  0.0019260824588933
  0.8827081864080717  0.8200901849597673  0.9980739175411066
  0.1096166213348700  0.4916285494076389  0.2608586410292730
  0.8903833786651304  0.9916285494076393  0.7391413589707270
  0.1311302948748863  0.3257910409147438  0.4852763353287188
  0.8688697051251139  0.8257910409147441  0.5147236646712813
  0.1260018167106162  0.4999055032682719  0.7421160204037267
  0.8739981832893837  0.9999055032682720  0.2578839795962664
  0.1443866112754214  0.6771780717258632  0.9905008751071687
  0.8556133887245716  0.1771780717258632  0.0094991248928314
  0.1383983835697240  0.8449452231884458  0.2490510144772470
  0.8616016164302760  0.3449452231884458  0.7509489855227530
  0.1274140130792431  0.6712008434805178  0.5067515155226643
  0.8725859869207565  0.1712008434805178  0.4932484844773287
  0.1132945312923207  0.8399882521663262  0.7628040272406345
  0.8867054687076796  0.3399882521663261  0.2371959727593656
  0.3906485639855100  0.1728502237716343  0.0081902205328593
  0.6093514360144900  0.6728502237716344  0.9918097794671407
  0.4018487388263648  0.9983235028299807  0.2781339279946523
  0.5981512611736350  0.4983235028299812  0.7218660720053476
  0.3548372667371606  0.1681380260013616  0.4729663752248381
  0.6451627332628397  0.6681380260013621  0.5270336247751617
  0.3641286402653677  0.9892982600078865  0.7406955783403192
  0.6358713597346326  0.4892982600078861  0.2593044216596808
  0.3799342604307304  0.5043805928217219  0.9848830619695208
  0.6200657395692697  0.0043805928217216  0.0151169380304790
  0.3664291562612694  0.3298281750682081  0.2518653723537901
  0.6335708437387311  0.8298281750682088  0.7481346276462103
  0.3761316204158638  0.4947978996932093  0.4979376758023487
  0.6238683795841363  0.9947978996932095  0.5020623241976514
  0.3801491716403131  0.3374171541517477  0.7318326402112567
  0.6198508283596872  0.8374171541517477  0.2681673597887431
  0.3652651956872724  0.8310600952397816  0.0177749361206560
  0.6347348043127277  0.3310600952397814  0.9822250638793436
  0.3713810553682625  0.6750863216650447  0.2438917612101761
  0.6286189446317376  0.1750863216650446  0.7561082387898239
  0.3880705360659591  0.8364445347900903  0.4983727012592568
  0.6119294639340406  0.3364445347900906  0.5016272987407433
  0.3866620903139047  0.6625751858908377  0.7594203273709176
  0.6133379096860949  0.1625751858908379  0.2405796726290824
