Al  O                                   
   1.00000000000000     
     5.6555729076654027   -0.0011371353285001    0.0002796342957927
    -2.8274701543530707    4.8566143369874739   -0.0014363372188952
     0.0006378141358058    0.1611526744681427   13.6053067445191544
   Al   O 
    16    24
Direct
  0.6644963297398441  0.8294269034897290  0.9136271688374498
  0.6686243711747419  0.8387258694066426  0.6691098350394739
  0.9895271977669898  0.4805032770073568  0.5838605948264803
 -0.0008461071523146  0.4986203352472901  0.3384685155547885
  0.3329737096697998  0.1669912104193157  0.2442364748886846
  0.3425901454352850  0.1861017253846626  0.9987794357971259
  0.6664064848932912  0.3340961983674429  0.7913621482841775
  0.0153807631342158  0.5313863257389110  0.9516533228109515
  0.1664891797130195  0.3342099090094842  0.7913639552327341
  0.9890390215915204  0.9899514073555732  0.4511527202004001
  0.3172147216393496  0.1361006495123681  0.6309410295152180
  0.5002416077341703  0.9902127036278439  0.4512549460990835
  0.4991360726551070  0.4992341242182422  0.4522843033616105
  0.3426632727205913  0.6754869462670193  0.1313071460321028
  0.8316937753333016  0.6753161468652927  0.1313486468334843
  0.8327942675568090  0.1664892776892676  0.1306326719045213
  0.3209550389574737  0.6443273360796268  0.8771594481891812
  0.8227385777786180  0.6442844592014726  0.8771703406827676
  0.3451117219264918  0.1913518011857134  0.8703840984241511
  0.5105708665223481  0.0242703874960667  0.7055384922274819
  0.9878008323650886  0.4773119573449026  0.7122454742655732
  0.8441270934683830  0.1892891490579309  0.8750801882655853
  0.0120838224581379  0.0243183063374007  0.7056177877272914
  0.4886531051130580  0.4788779642917221  0.7076518927831973
  0.6334278411179884  0.3105862347967138  0.5367827449035755
  0.1755857394296583  0.3104328176355746  0.5367680144556345
  0.6615432634798905  0.8243416215479304  0.5332356026187700
  0.8287733484627483  0.6635020681869535  0.3847583014100822
  0.3296953930308058  0.1602872570799223  0.3788910195287170
  0.1706971519480550  0.8425738482220151  0.5386822963422701
  0.3342110101580129  0.6638095847345711  0.3847899952356784
  0.8296089417656505  0.1597397514202834  0.3847448132843549
  0.9978342086195858  0.0020637463262073  0.1978860026795649
  0.5033214581238404  0.0021709900693309  0.1978676662392109
  0.0023494535154965  0.5053762294300406  0.2039425566788606
  0.1557264766309671  0.3555263837570379  0.0457220021262460
  0.6703536773300479  0.8411483479759452  0.0494769229015171
  0.5023891162326157  0.5058519967684573  0.1977382112039657
  0.6987324089901721  0.3555323224941482  0.0458441399059367
  0.1613846389691383  0.8234724289536133  0.0440390727021089
