Al  O                                   
   1.00000000000000     
     4.7874949194339642   -0.0000000000000000    0.0000000000000000
    -2.3937474597169812    4.1460922207187467   -0.0000000000000000
     0.0000000000000000    0.0000000000000000   13.0487424588772605
   Al   O 
    12    18
Direct
  0.3333330000000032  0.6666669999999968  0.0188516645406840
  0.6666669999999968  0.3333330000000032  0.4811483354593161
  0.9999996666666675  0.0000003333333325  0.3521849978740125
  0.3333336666666682  0.6666663333333318  0.8144816687926517
  0.6666663333333318  0.3333336666666682  0.6855183312073483
  0.0000003333333325  0.9999996666666675  0.1478150021259874
  0.6666669999999968  0.3333330000000032  0.9811483354593160
  0.3333330000000032  0.6666669999999968  0.5188516645406840
  0.3333336666666682  0.6666663333333318  0.3144816687926518
  0.9999996666666675  0.0000003333333325  0.8521849978740126
  0.0000003333333325  0.9999996666666675  0.6478150021259874
  0.6666663333333318  0.3333336666666682  0.1855183312073483
  0.6394294667748429  0.6666669999999968  0.9166667000000004
  0.3333330000000032  0.9727624667748461  0.9166667000000004
  0.0272375332251540  0.3605705332251571  0.9166667000000004
  0.6666669999999968  0.6394294667748429  0.5833332999999996
  0.9727624667748461  0.3333330000000032  0.5833332999999996
  0.3605705332251571  0.0272375332251540  0.5833332999999996
  0.3060961334415143  0.0000003333333325  0.2500000333333361
  0.9999996666666675  0.3060958001081818  0.2500000333333361
  0.6939041998918182  0.6939038665584857  0.2500000333333361
  0.3605705332251571  0.3333330000000032  0.0833332999999996
  0.6666669999999968  0.0272375332251540  0.0833332999999996
  0.9727624667748461  0.6394294667748429  0.0833332999999996
  0.3333330000000032  0.3605705332251571  0.4166667000000004
  0.0272375332251540  0.6666669999999968  0.4166667000000004
  0.6394294667748429  0.9727624667748461  0.4166667000000004
  0.9999996666666675  0.6939038665584857  0.7500000333333361
  0.6939041998918182  0.0000003333333325  0.7500000333333361
  0.3060961334415143  0.3060958001081818  0.7500000333333361
