Al  O                                   
   1.00000000000000     
     5.5450532734683584    0.0000000000000000   -0.0020623597440955
     0.0000000000000000    8.3531650052433406    0.0000000000000000
    -0.0854508872221166    0.0000000000000000    8.0398110780836269
   Al   O 
    16    24
Direct
  0.3783297315585999  0.7500000000000000  0.1255330106396456
  0.6216702684414006  0.2500000000000000  0.8744669893603541
  0.8688948270379093  0.2500000000000000  0.4993153011350775
  0.1311051729620904  0.7500000000000000  0.5006846988649225
  0.8757940996091169  0.7500000000000000  0.1248390444156941
  0.1242059003908836  0.2500000000000000  0.8751609555843061
  0.6159321287647528  0.7500000000000000  0.7459868996241191
  0.3840678712352472  0.2500000000000000  0.2540131003758812
  0.3676116932223387  0.0754827462906607  0.6132665295053897
  0.6323883067776610  0.5754827462906602  0.3867334704946104
  0.6323883067776610  0.9245172537093398  0.3867334704946104
  0.3676116932223387  0.4245172537093392  0.6132665295053897
  0.1166710393612913  0.5782657967952786  0.8625330154347750
  0.8833289606387089  0.0782657967952789  0.1374669845652250
  0.8833289606387089  0.4217342032047212  0.1374669845652250
  0.1166710393612913  0.9217342032047214  0.8625330154347750
  0.8822301975711938  0.7500000000000000  0.8770046446542142
  0.1177698024288062  0.2500000000000000  0.1229953553457858
  0.6123251681975015  0.2500000000000000  0.6400761204386303
  0.3876748318024983  0.7500000000000000  0.3599238795613773
  0.3616004581809570  0.7500000000000000  0.8891193227297567
  0.6383995418190430  0.2500000000000000  0.1108806772702428
  0.1342747396293178  0.2500000000000000  0.6285250990049893
  0.8657252603706821  0.7500000000000000  0.3714749009950110
  0.8867702949968711  0.4062367380183223  0.8977825598211027
  0.1132297050031287  0.9062367380183154  0.1022174401788970
  0.1132297050031287  0.5937632619816846  0.1022174401788970
  0.8867702949968711  0.0937632619816774  0.8977825598211027
  0.6070964668434840  0.9184060759553494  0.6141205824493408
  0.3929035331565161  0.4184060759553492  0.3858794175506595
  0.3929035331565161  0.0815939240446508  0.3858794175506595
  0.6070964668434840  0.5815939240446506  0.6141205824493408
  0.3581492597888773  0.4065087828419220  0.8548063426687897
  0.6418507402111228  0.9065087828419222  0.1451936573312099
  0.6418507402111228  0.5934912171580778  0.1451936573312099
  0.3581492597888773  0.0934912171580779  0.8548063426687897
  0.1348082601473600  0.9174725809097157  0.6366915779903470
  0.8651917398526395  0.4174725809097157  0.3633084220096530
  0.8651917398526395  0.0825274190902842  0.3633084220096530
  0.1348082601473600  0.5825274190902843  0.6366915779903470
