Al  O                                   
   1.00000000000000     
     5.1534451072609597    0.0042896384219174    0.0000000000000000
     2.5729293775398419    4.4661569978050242    0.0000000000000000
     0.0000000000000000    0.0000000000000000   20.0000000000000000
   Al   O 
     8    12
Direct
  0.6721944303885508  0.9619564388702031  0.5143795996109048
  0.3388201052693844  0.6284251410214452  0.5143627340759238
  0.6646777896503124  0.2983223905124817  0.6523473848874488
  0.3426774070414638  0.9592840205722410  0.6519559668216459
  0.0037478309259527  0.6369994815741791  0.6522213037304283
  0.0046661606141498  0.9582235042931018  0.3765910199333931
  0.6658451913383985  0.6360970336889267  0.3766106362244983
  0.3435684738894480  0.2973048306985362  0.3764971640472083
  0.6132475926091914  0.2955542147253709  0.5683243339412130
  0.3963721977276222  0.9042576701578966  0.5680428063100464
  0.0052716344479435  0.6865528328530530  0.5681212209522357
  0.0040372203246903  0.2977897181021731  0.6764977106515175
  0.6703091072780083  0.9647333190073226  0.6849912001759932
  0.3369179118495893  0.6318622677229797  0.6850084611861718
  0.0057041140667948  0.9037220469630896  0.4605517847028509
  0.6150591293355276  0.6858428855518000  0.4606964184369957
  0.3974066733709662  0.2951623382638005  0.4604966630309519
  0.6713145701556655  0.9638074964247281  0.3437092947244480
  0.3380853223417333  0.6306546296858357  0.3437176006819556
  0.0047448488099491  0.2969114769537811  0.3523238150608208
