Al  O                                   
   1.00000000000000     
     5.0208764222237505   -0.0005677716501671    0.0000000000000000
    -2.5109240101341954    4.3437043004301676    0.0000000000000000
     0.0000000000000001    0.0000000000000000   20.0000000000000000
   Al   O 
     8    12
Direct
  0.3741961308785875  0.5985858111129900  0.5000088082550533
  0.3866803081511421  0.2760283976425981  0.3738613557761212
  0.6969823453376520  0.9314369975659815  0.3740053269114014
  0.0419101856617132  0.5866055047514180  0.3736014733663140
  0.7080813110089395  0.2657261021327884  0.5000042579962169
  0.6950297802228533  0.5861751981177505  0.6265300190651644
  0.3844566000104237  0.9310879834631862  0.6259357125054947
  0.0397103443426587  0.2755167781251728  0.6261060786832431
  0.3732493811057509  0.5978265132961837  0.6632672638663664
  0.3750941114184485  0.5978449805580510  0.3366592873622167
  0.6482509604836864  0.5398093426838315  0.4429004748876224
  0.0400521141361594  0.9310556029003720  0.6495807285089370
  0.4336299235723402  0.9324384156466863  0.4427874642966856
  0.7067275393430705  0.2641804847549736  0.6633631902383073
  0.6497836278382607  0.9326232171435578  0.5571269095092859
  0.0406853930134403  0.3243066156936223  0.4428423346588772
  0.0413664043937700  0.9313584403606043  0.3506648224318951
  0.4325572973408001  0.3232828628699735  0.5572022589555843
  0.7083006569167978  0.2646929934948474  0.3365871723231635
  0.0416837340384646  0.5407251097467025  0.5571782461978643
