Al  O Al  O                             
   1.00000000000000     
     2.9622836954574336    0.0009380521734777    0.0001994671513631
     0.0032897827578830    9.0796649143157069   -0.0000319136379665
     0.0004265733164205    0.0000440997701618    7.5207806957808003
   Al   O    Al   O 
     4     6     4     6
Direct
  0.2445182295494921  0.7300627779086931  0.3446704036896599
  0.2450811873335766  0.2497592069444250  0.0932043113953884
  0.7454222966807683  0.4088240659214147  0.3634796681675227
  0.7444490548923415  0.9088824341774359  0.5938717809023508
  0.7449984052952674  0.3673177500981884  0.1024469681028736
  0.7438988569330742  0.8775325002155683  0.3526134692403390
  0.2444555361960059  0.7916351463007308  0.6036059335074470
  0.2455865228308217  0.2915557455006114  0.3538873052891114
  0.7450818478949651  0.1020458374042987  0.6043297094136008
  0.7451698669997243  0.6019952242375278  0.3530032890195560
  0.2436984022031817  0.7499118873244340  0.8641041757927076
  0.2449022678877539  0.2302548080754331  0.6127134425596434
  0.7446277980330764  0.4285404850295363  0.8440504462215668
  0.7435027658975367  0.9283167172852266  0.1134988163544262
  0.7450931492709671  0.3778647180334522  0.6048621961425460
  0.7436510568158440  0.8673847535557044  0.8549663271038329
  0.2440917607024960  0.7806717603587341  0.1054140054407754
  0.2453871918363306  0.2808297432453839  0.8519316461859704
  0.2433281484711157  0.0565339510305804  0.1053999797494315
  0.2444689359321649  0.5567409989161010  0.8521530396896038
