Al  O                                   
   1.00000000000000     
    11.3125866283124044   -0.0220720220987428    0.0198179977276620
    -0.0110826404295733    5.6733716011429438   -0.0090691474313297
     0.0419188492859663   -0.0381896944584342   23.5206019322045599
   Al   O 
    64    96
Direct
  0.2619709263208308  0.0059492707954891  0.1680195142374450
  0.1215482206832600  0.7560813405845086  0.0856825643722701
  0.1099843135133048  0.2638021787888913  0.2499389685463404
  0.2624457048319543  0.5144464241011699  0.1669169496255512
  0.3800657786272928  0.2625218477025698  0.2564460682419291
  0.7596772531164282  0.0164445059988492  0.1702659556056349
  0.6282633992591721  0.2629152662999432  0.2543459691240388
  0.7591845630318784  0.5044530336017238  0.1661392159775128
  0.5057056884624302  0.5078119180326953  0.0069816029804173
  0.8833026594847511  0.7652480430835515  0.0809311071631807
  0.0177606947975901  0.9703460709905515  0.3378159058385420
  0.4956397509674060  0.0045723339179186  0.3417938740280012
  0.5011139910908837  0.5289461878465825  0.3419241383107386
  0.2393666191948857  0.9869050970254460  0.8256457933977135
  0.1318246396646040  0.2517863796973126  0.9245925697563072
  0.3811416923302559  0.2487701160028718  0.9179903851421386
  0.6284320351736731  0.2663347462699298  0.9106716542935289
  0.8788969120063082  0.2523952715290770  0.9248640344762531
  0.2744785768679772  0.0079193033732244  0.0095804042359694
  0.1190759488275800  0.2575768986144794  0.0875488546542390
  0.2581050558018121  0.5019542236878467  0.0066569712815758
  0.6086817887171089  0.7644052912294952  0.2500198745792128
  0.7551675625003268  0.5173723262834498  0.0038448861339285
  0.8810741113011119  0.2593570202855089  0.0805214250561210
  0.0150514496895966  0.0116836460091775  0.4904663200599148
  0.1347240846670938  0.7640653086147664  0.5853896439748616
  0.0124378139628739  0.5036816502045911  0.4967918000728632
  0.3606739990980731  0.2564065365837844  0.4202006348542381
  0.3822335742172982  0.7622132561657634  0.5865984513353028
  0.5108322914769062  0.0025519431757866  0.5016816826017162
  0.7605670876427697  0.9789768632683995  0.3318393967089185
  0.6347009362893854  0.2645802967676024  0.4180967005890062
  0.5108600230546801  0.5205851840081873  0.5023923273308892
  0.8818949067055666  0.2687571642209330  0.4137610172744848
  0.8730560624519700  0.7657975497120638  0.5790833587739668
  0.9955374699152381  0.9960535890559320  0.8349849443167273
  0.0272232056044201  0.5023333045321765  0.8330553361494251
  0.3829903214217871  0.7454675388245705  0.9184041197930342
  0.5139657528689605  0.9812756616076299  0.8316673776186343
  0.7468706198026633  0.0171459796534997  0.6630794305516856
  0.6181172290639502  0.2749662794718784  0.7557917128725702
  0.7466343047339895  0.5153370377718109  0.6619079215784910
  0.8846016874240208  0.2677222243094068  0.7506425290589446
  0.2620251064871627  0.7731685846955094  0.4585326313596088
  0.2550566752918452  0.2623419534677930  0.5445374678852885
  0.0011553302054195  0.2604907745119838  0.6208820268525524
  0.7554277797079110  0.7526693208274255  0.4547871303743865
  0.7587280760219892  0.2617918396510428  0.5413581226135190
  0.4956575021272441  0.2627912198269128  0.6233286567880179
  0.9952701980633333  0.7643526330787456  0.7101460874154508
  0.5107892160166521  0.7719032698105459  0.7073435227451733
  0.7550859950871140  0.7706625076600133  0.7833560446061235
  0.5071780526471470  0.2595642291800527  0.1284885927357245
  0.0050564131133689  0.7654593258793536  0.2075182029130635
  0.2600984617348004  0.7690548813146060  0.2940948347920626
  0.2463573937452875  0.2418584449561635  0.7017790278773118
  0.5041467781516085  0.7593581237863620  0.1272380738503980
  0.2511753701201501  0.7424604229902635  0.7045974842978946
  0.0107107207240293  0.7528711732647053  0.9626916938758054
  0.7475792309675010  0.7742267309438364  0.8910709787637043
  0.6465891148073390  0.0072678783629565  0.0331953794903762
  0.8731695372029358  0.4947522191972645  0.2928957189411752
  0.1263275715739327  0.4680083150200949  0.3773012267530792
  0.3806018797094655  0.4817666954650096  0.7967958871718360
  0.8668326717445016  0.7646828365773228  0.6644706952935067
  0.9040141990440514  0.2674279295516819  0.8407929378868230
  0.7527690712507659  0.4904580111807638  0.7484885589814766
  0.4937641555725137  0.4884258945381779  0.9249506721053719
  0.8706186826059025  0.7702122512188330  0.8408367001283477
  0.8685931443712164  0.2678929471468109  0.6693724266859005
  0.5081249879536595  0.5197745713444349  0.7545235100551242
  0.7531804786473332  0.4926594450961583  0.9232747006536908
  0.6089202020179243  0.2477206868224312  0.8353759673134425
  0.6461725811674249  0.7652489004757370  0.6721029138245789
  0.4942537075273273  0.0096239380773715  0.9128266762647527
  0.7533073655749120  0.0482559362943090  0.7476028616759375
  0.6340855198927792  0.2669477608394797  0.6690814650560354
  0.6406731527948745  0.7729645062473918  0.8367569348097993
  0.7492964090409080  0.0509616355643233  0.9222067818310379
  0.5166168444515971  0.0115177854852480  0.7558153649454222
  0.3826753613970983  0.7587352999806963  0.6660946447353880
  0.3665288851043883  0.2187283547941270  0.8383872169840292
  0.2575243467288169  0.4953272371945115  0.7508368775081192
  0.0124686259831972  0.4874194422037589  0.9198315820400880
  0.3732269686215398  0.7584671550476944  0.8394656172654369
  0.3807384932364934  0.2519388827074590  0.6696955202182280
  0.9884883223673143  0.5174519174254771  0.7577863603905309
  0.2629414498984838  0.4819396084755643  0.9259599008025952
  0.1281973285975620  0.2281574529425279  0.8451845788383142
  0.1205096808774786  0.7559730908190735  0.6656861289724595
  0.0041969065880865  0.0242073585897056  0.9233212577717482
  0.2467001430864407  0.9920855026611397  0.7502044582573228
  0.1165542451549994  0.2586672159276381  0.6661596839513275
  0.1146845292852028  0.7752759660462457  0.8383509604156880
  0.2653306206879759  0.0101096442097812  0.9265460227211363
  0.9814206787088363  0.0087420895310070  0.7572623227017485
  0.8795390769392862  0.7707229825315691  0.3265466316492000
  0.8887683780359504  0.2546513804219542  0.4960223959009840
  0.7560426064737175  0.4787938899037575  0.4180404701669957
  0.4958168895714902  0.5174978389003362  0.5800841960793641
  0.8877451119757346  0.7606875322135527  0.4992900306226368
  0.8692392852610322  0.2319637583195786  0.3330081000762746
  0.5072433191275435  0.4803202853782390  0.4174407134024862
  0.7669714421047804  0.5148400031971939  0.5848068467406258
  0.6251638455308615  0.2592916037333807  0.4986203747093487
  0.6184631797628275  0.7761256665165346  0.3289078340585608
  0.4957967335389283  0.0077662687999702  0.5794704485741935
  0.7509608202052384  0.0196779105539245  0.4113047166556126
  0.6253703839940428  0.2408536997993639  0.3346495658201417
  0.6221528970204089  0.7620420403783214  0.4936565964743173
  0.7672695491195767  0.0139807136939301  0.5858602283824522
  0.5064203951384224  0.0469272073386966  0.4182414834591902
  0.3936741302680737  0.7616554661214350  0.3311956166001423
  0.3904551996844173  0.2666505408836909  0.4982549195074263
  0.2572529308469438  0.5060034388079039  0.4175233409478049
  0.0012156451369217  0.5346214147687731  0.5788566515702550
  0.3954029288368263  0.7599910186282621  0.5009361953135288
  0.3960249228466297  0.2678589628473886  0.3346489680915933
  0.9989840171605487  0.4913096706715489  0.4190097842399140
  0.2535466698312248  0.5418194493143403  0.5790889547107010
  0.1176419750097477  0.2593500782381516  0.5056209690524078
  0.1297107388929495  0.7336002822610393  0.3338333078862289
  0.0022283480582283  0.9864714321441748  0.5789458005419795
  0.2614460583413143  0.0210281190971262  0.4179206062302884
  0.1142713024215104  0.2408522108741297  0.3267572509035858
  0.1200106539921721  0.7596656014539365  0.4988210658007747
  0.2546370113161847  0.9829747739890334  0.5786771179689646
  0.9897636024852796  0.0248942129952678  0.4134549956123960
  0.8792146081756277  0.7448181392597898  0.0035525972743473
  0.8602893204004758  0.2581913693600079  0.1594326819085851
  0.7719044066146600  0.5192871240427195  0.0847026080270041
  0.5122232613776601  0.4940705062754320  0.2569341484269150
  0.8694696771062432  0.7654385608057629  0.1643098261981604
  0.8659740386944670  0.2802524135575286  0.0036253451809186
  0.5039167630862639  0.5066101429545364  0.0854027882335839
  0.7410710803773563  0.5083161172503061  0.2471843730026963
  0.6364794066871164  0.2626093481581593  0.1709874904670063
  0.6296401695515668  0.7273924582277956  0.0035105056140200
  0.5063794993549559  0.0349716689764612  0.2543072931228865
  0.7658656574927234  0.0040266575550131  0.0848045410221202
  0.6250736383047358  0.2815789590512841  0.9985100343107650
  0.6361759766109778  0.7561720081521132  0.1703878956068662
  0.7305152237551892  0.0050746857608437  0.2495497454675839
  0.5238400330428390  0.0109076407835985  0.0851724787732237
  0.3748210657338930  0.7393613398847623  0.9999569379930801
  0.3769707526240537  0.2616649994248189  0.1707699847083669
  0.2334795445033456  0.5064943476795740  0.0861397429670263
  0.9963777365954901  0.4967754133421690  0.2444340279310516
  0.3689433798168671  0.7626366367635210  0.1630279804031830
  0.3785488877007573  0.2678644498710362  0.0032179768886278
  0.0059635797617816  0.5098622555589949  0.0863289965944662
  0.2579660287060270  0.4968586838794704  0.2476148591499620
  0.1515699260809788  0.2588313104543064  0.1680562679592239
  0.1437108632601374  0.7546651201789263  0.0062842413725244
  0.0181568908854081  0.0031209719767186  0.2523986203542540
  0.2349750048320063  0.0075572951030601  0.0866731865212749
  0.1515143858250955  0.2482214853195049  0.0049383279711295
  0.1406354567624346  0.7593993041323009  0.1652593625549549
  0.2616310712309681  0.0276220171029115  0.2476892601293003
  0.0036957459671408  0.0071192057714556  0.0845752103522605
