Al  O                                   
   1.00000000000000     
     8.9357191349826888    0.0000000000000000   -0.0000000000000000
     0.0000000000000000    8.9357191349826888   -0.0000000000000000
    -0.0000000000000000    0.0000000000000000    8.9357191349826888
   Al   O 
    32    48
Direct
  0.0000000000000000  0.0000000000000000 -0.0000000000000000
  0.5000000000000000  0.5000000000000000  0.5000000000000000
  0.5000000000000000  0.0000000000000000  0.5000000000000000
  0.0000000000000000  0.5000000000000000 -0.0000000000000000
  0.5000000000000000  0.0000000000000000 -0.0000000000000000
  0.0000000000000000  0.5000000000000000  0.5000000000000000
  0.0000000000000000  0.0000000000000000  0.5000000000000000
  0.5000000000000000  0.5000000000000000 -0.0000000000000000
  0.2871748317495145  0.0000000000000000  0.2500000000000000
  0.7871748317495149  0.5000000000000000  0.7500000000000000
  0.7500000000000000  0.2871748317495144  0.5000000000000000
  0.2500000000000000  0.7871748317495149 -0.0000000000000000
  0.7500000000000000  0.7128251682504851 -0.0000000000000000
  0.2500000000000000  0.2128251682504854  0.5000000000000000
  0.5000000000000000  0.2500000000000000  0.7128251682504851
  0.0000000000000000  0.7500000000000000  0.2128251682504854
  0.0000000000000000  0.2500000000000000  0.2871748317495145
  0.5000000000000000  0.7500000000000000  0.7871748317495149
  0.2871748317495145  0.5000000000000000  0.7500000000000000
  0.7871748317495149  0.0000000000000000  0.2500000000000000
  0.7128251682504851  0.0000000000000000  0.7500000000000000
  0.2128251682504854  0.5000000000000000  0.2500000000000000
  0.2500000000000000  0.7128251682504851  0.5000000000000000
  0.7500000000000000  0.2128251682504854 -0.0000000000000000
  0.2500000000000000  0.2871748317495145 -0.0000000000000000
  0.7500000000000000  0.7871748317495149  0.5000000000000000
  0.5000000000000000  0.7500000000000000  0.2871748317495145
  0.0000000000000000  0.2500000000000000  0.7871748317495149
  0.0000000000000000  0.7500000000000000  0.7128251682504851
  0.5000000000000000  0.2500000000000000  0.2128251682504854
  0.7128251682504851  0.5000000000000000  0.2500000000000000
  0.2128251682504854  0.0000000000000000  0.7500000000000000
  0.1396248040638341  0.1354698771681748  0.9092642811621214
  0.6396248040638343  0.6354698771681745  0.4092642811621215
  0.4092642811621215  0.1396248040638341  0.3645301228318251
  0.9092642811621214  0.6396248040638343  0.8645301228318255
  0.4092642811621215  0.8603751959361657  0.1354698771681748
  0.9092642811621214  0.3603751959361661  0.6354698771681745
  0.0907357188378786  0.1396248040638341  0.6354698771681745
  0.5907357188378786  0.6396248040638343  0.1354698771681748
  0.0907357188378786  0.8603751959361657  0.8645301228318255
  0.5907357188378786  0.3603751959361661  0.3645301228318251
  0.6354698771681745  0.5907357188378786  0.8603751959361657
  0.1354698771681748  0.0907357188378786  0.3603751959361661
  0.8645301228318255  0.5907357188378786  0.1396248040638341
  0.3645301228318251  0.0907357188378786  0.6396248040638343
  0.3645301228318251  0.9092642811621214  0.8603751959361657
  0.8645301228318255  0.4092642811621215  0.3603751959361661
  0.1354698771681748  0.9092642811621214  0.1396248040638341
  0.6354698771681745  0.4092642811621215  0.6396248040638343
  0.1396248040638341  0.3645301228318251  0.4092642811621215
  0.6396248040638343  0.8645301228318255  0.9092642811621214
  0.8603751959361657  0.1354698771681748  0.4092642811621215
  0.3603751959361661  0.6354698771681745  0.9092642811621214
  0.1396248040638341  0.6354698771681745  0.0907357188378786
  0.6396248040638343  0.1354698771681748  0.5907357188378786
  0.8603751959361657  0.8645301228318255  0.0907357188378786
  0.3603751959361661  0.3645301228318251  0.5907357188378786
  0.5907357188378786  0.8603751959361657  0.6354698771681745
  0.0907357188378786  0.3603751959361661  0.1354698771681748
  0.5907357188378786  0.1396248040638341  0.8645301228318255
  0.0907357188378786  0.6396248040638343  0.3645301228318251
  0.9092642811621214  0.8603751959361657  0.3645301228318251
  0.4092642811621215  0.3603751959361661  0.8645301228318255
  0.9092642811621214  0.1396248040638341  0.1354698771681748
  0.4092642811621215  0.6396248040638343  0.6354698771681745
  0.3645301228318251  0.4092642811621215  0.1396248040638341
  0.8645301228318255  0.9092642811621214  0.6396248040638343
  0.1354698771681748  0.4092642811621215  0.8603751959361657
  0.6354698771681745  0.9092642811621214  0.3603751959361661
  0.6354698771681745  0.0907357188378786  0.1396248040638341
  0.1354698771681748  0.5907357188378786  0.6396248040638343
  0.8645301228318255  0.0907357188378786  0.8603751959361657
  0.3645301228318251  0.5907357188378786  0.3603751959361661
  0.8603751959361657  0.6354698771681745  0.5907357188378786
  0.3603751959361661  0.1354698771681748  0.0907357188378786
  0.1396248040638341  0.8645301228318255  0.5907357188378786
  0.6396248040638343  0.3645301228318251  0.0907357188378786
  0.8603751959361657  0.3645301228318251  0.9092642811621214
  0.3603751959361661  0.8645301228318255  0.4092642811621215
