Al O                                    
   1.00000000000000     
     7.9664992030476771    0.0000000000000000    0.0000000000000000
     0.0000000000000000   16.0403248212716782    0.0000000000000000
     0.0000000000000000    0.0000000000000000   11.7566263315774027
   Al   O 
    64    96
Direct
  0.1342100431216124  0.0080045542561624  0.9889960153527335
  0.3657899718783922  0.9919954697438395  0.4889959743527336
  0.8657900018783876  0.5080045302561605  0.5110040256472663
  0.6342100281216078  0.4919954397438443  0.0110040226472627
  0.3771089905538128  0.0038830921954728  0.1718310347772846
  0.1228910094461872  0.9961169228045320  0.6718310347772852
  0.6228910094461875  0.5038830771954680  0.3281689862227136
  0.8771089605538100  0.4961168928045296  0.8281689652227148
  0.3842078453337061  0.1339133403268923  0.3429770548532823
  0.1157921616662980  0.8660866596731079  0.8429770948532791
  0.6157921846662894  0.6339133403268921  0.1570229561467219
  0.8842078453337060  0.3660866596731078  0.6570229451467171
  0.6445240970524971  0.9994816249758138  0.3330822793236750
  0.8554759329474982  0.0005183550241847  0.8330822993236765
  0.3554759029475030  0.4994815949758183  0.1669177206763252
  0.1445240970524970  0.5005183450241837  0.6669177006763235
  0.3842768089028202  0.1211740013676615  0.6639705876590309
  0.1157231760971820  0.8788259986323382  0.1639705256590328
  0.6157231610971776  0.6211740013676618  0.8360293723409657
  0.8842768089028199  0.3788260286323338  0.3360294123409692
  0.1085725665030137  0.1260805784179502  0.4995564536022837
  0.3914274114969846  0.8739194215820499  0.9995564126022838
  0.8914274114969842  0.6260805784179501  0.0004435493977129
  0.6085725585030133  0.3739194215820498  0.5004435463977164
  0.1383319166585791  0.2590820486898963  0.3340352229866255
  0.3616680983414257  0.7409179513101043  0.8340352639866253
  0.8616680683414233  0.7590820486898957  0.1659647670133737
  0.6383319016585742  0.2409179363101063  0.6659647360133747
  0.6248873747059016  0.1348512061127335  0.1605833681246776
  0.8751125952940959  0.8651488088872644  0.6605833791246819
  0.3751126252940984  0.6348511911127356  0.3394166208753178
  0.1248873817059057  0.3651488088872641  0.8394165808753219
  0.3778596042781902  0.2417709439186558  0.8388690687627806
  0.1221403957218098  0.7582290860813397  0.3388691087627769
  0.6221403957218096  0.7417709139186603  0.6611308912372232
  0.8778595742781951  0.2582290560813444  0.1611308912372230
  0.3776531068740794  0.3674140758828083  0.0085868659168867
  0.1223469001259175  0.6325859241171918  0.5085868399168846
  0.6223469531259181  0.8674140758828082  0.4914131600831154
  0.8776530768740772  0.1325859391171894  0.9914131190831156
  0.2418253417235803  0.1911304904044215  0.0833590472780985
  0.2581746282764174  0.8088694945955739  0.5833590272781038
  0.7581746582764194  0.6911305054044261  0.4166409727218959
  0.7418253717235831  0.3088695245955762  0.9166409727218962
  0.5068691120785366  0.0687386214036114  0.9141963145323524
  0.9931308579214609  0.9312614085963842  0.4141962745323498
  0.4931308579214609  0.5687385914036158  0.5858036854676476
  0.0068691890785394  0.4312614085963838  0.0858036744676497
  0.0070301077119771  0.0707870237835094  0.2434036670147759
  0.4929698702880282  0.9292129762164908  0.7434036870147772
  0.9929699002880231  0.5707870237835092  0.2565963329852241
  0.5070300697119744  0.4292129762164905  0.7565963539852226
  0.0048519485084686  0.1841672058771894  0.7528477200814819
  0.4951480514915315  0.8158327941228103  0.2528476790814820
  0.9951480514915315  0.6841672058771897  0.7471522399185219
  0.5048519185084731  0.3158328241228132  0.2471522599185235
  0.2542487594194336  0.3045980166899738  0.5824314751304198
  0.2457512405805665  0.6954019833100261  0.0824315311304175
  0.7457512105805642  0.8045980166899739  0.9175685248695802
  0.7542487594194334  0.1954019683100286  0.4175685248695800
  0.7466294589295752  0.0560804146285299  0.5836627153843568
  0.7533705710704273  0.9439195663714716  0.0836627153843565
  0.2533705710704272  0.5560804336285284  0.9163373246156465
  0.2466294289295728  0.4439195963714748  0.4163372846156435
  0.1384835195705608  0.9994644121925895  0.1622001317586689
  0.3615164954294368  0.0005355958074109  0.6622001207586719
  0.8615164654294347  0.4994644721925875  0.3377998582413305
  0.6384835045705628  0.5005355878074105  0.8377998382413283
  0.1254710626936663  0.9985392482394674  0.5044333769620803
  0.3745289373063340  0.0014607647605376  0.0044333249620832
  0.8745289373063335  0.4985392482394669  0.9955666230379197
  0.6254710316936675  0.5014607517605326  0.4955666230379197
  0.1034306256920708  0.9863906256029047  0.8311007245424412
  0.3965693893079268  0.0136094003970972  0.3311007655424412
  0.8965693593079240  0.4863905956029025  0.6688992344575589
  0.6034306716920750  0.5136093743970953  0.1688992444575525
  0.6197498945846192  0.0075211304983894  0.1732112781567746
  0.8802500754153784  0.9924788895016120  0.6732112991567731
  0.3802500754153785  0.5075211104983880  0.3267887218432253
  0.1197499775846223  0.4924788595016099  0.8267887418432267
  0.6135308828602836  0.9938316996303238  0.4937000173538265
  0.8864690871397140  0.0061682883696752  0.9937000173538262
  0.3864691171397167  0.4938316996303239  0.0062999756461695
  0.1135308898602874  0.5061683003696762  0.5062999826461738
  0.6216197090414730  0.9966180883030817  0.8272253358702129
  0.8783802609585245  0.0033819086969214  0.3272253768702128
  0.3783802909585271  0.4966181483030798  0.6727746231297873
  0.1216197240414705  0.5033819116969183  0.1727746231297872
  0.1136632039625950  0.1197187501744930  0.0078302923057583
  0.3863367810374075  0.8802812728255126  0.5078302723057642
  0.8863368410374050  0.6197187271744874  0.4921697276942362
  0.6136631889625904  0.3802812428255098  0.9921697276942358
  0.1370516083803227  0.1293878268524970  0.3390759795442894
  0.3629483916196776  0.8706121731475028  0.8390760005442880
  0.8629483916196844  0.6293878268524972  0.1609240204557106
  0.6370515783803131  0.3706121731475031  0.6609239994557120
  0.1306858830382788  0.1153840205728150  0.6607278974977784
  0.3693141019617234  0.8846159644271798  0.1607278464977776
  0.8693140719617211  0.6153840355728202  0.8392720615022218
  0.6306858980382765  0.3846159644271802  0.3392720825022199
  0.3863977455591215  0.1234160213099664  0.1708826684639640
  0.1136022464408778  0.8765839406900302  0.6708826584639633
  0.6136022544408787  0.6234160593099698  0.3291173415360369
  0.8863977755591238  0.3765839706900330  0.8291173005360368
  0.3511489560740436  0.1103836469944029  0.5008284664473676
  0.1488510289259588  0.8896163310055951  0.0008284854473657
  0.6488509839259587  0.6103836689944049  0.9991715335526324
  0.8511489860740459  0.3896163610055978  0.4991715335526322
  0.3813730955169163  0.1275501381840543  0.8225786213299069
  0.1186269044830840  0.8724498318159504  0.3225785393299002
  0.6186269044830842  0.6275501681840496  0.6774214196701001
  0.8813731255169112  0.3724498618159457  0.1774213996700982
  0.6428413507016235  0.1199500183455489  0.0068793447078336
  0.8571586792983790  0.8800500266544441  0.5068793427078402
  0.3571586792983789  0.6199499733455488  0.4931206572921593
  0.1428413207016211  0.3800499666544536  0.9931206572921598
  0.6236278034725098  0.1243706307368026  0.3320834594511420
  0.8763721665274948  0.8756293992631925  0.8320834184511419
  0.3763721965274906  0.6243706007368075  0.1679165505488590
  0.1236278634725075  0.3756293692631976  0.6679165405488583
  0.6141824179745642  0.1265189953837975  0.6519318550700421
  0.8858176120254383  0.8734809896162045  0.1519318140700428
  0.3858176120254378  0.6265190103837955  0.8480681449299579
  0.1141823949745663  0.3734810196162073  0.3480681449299576
  0.8639411803659346  0.1317772727217857  0.1614708047791402
  0.6360587896340629  0.8682226972782048  0.6614707947791391
  0.1360587896340625  0.6317773027217952  0.3385292052208604
  0.3639412703659354  0.3682227272782071  0.8385292052208609
  0.8759333515866319  0.1219115348854826  0.4984505540692682
  0.6240666184133727  0.8780884571145164  0.9984505950692675
  0.1240666334133705  0.6219115428854836  0.0015494299307305
  0.3759334415866322  0.3780884571145169  0.5015494049307325
  0.8831549570707208  0.1159387770080844  0.8364969947944634
  0.6168450739292782  0.8840611929919131  0.3364969137944674
  0.1168450429292793  0.6159388070080869  0.6635030052055366
  0.3831549570707205  0.3840612229919156  0.1635030252055384
  0.1098440542007865  0.2448332887518375  0.1779604649618538
  0.3901559457992136  0.7551666662481625  0.6779604649618535
  0.8901559457992136  0.7448333337518375  0.3220395350381461
  0.6098440842007888  0.2551666962481647  0.8220394950381503
  0.1345253067237107  0.2402093900351212  0.4936933032240592
  0.3654746932762891  0.7597905799648835  0.9936932622240596
  0.8654746332762917  0.7402094200351165  0.0063066927759403
  0.6345253367237058  0.2597906099648788  0.5063067377759404
  0.1436643919512145  0.2526395831805462  0.8216018363813608
  0.3563356230487830  0.7473604468194497  0.3216018563813619
  0.8563356230487834  0.7526395531805503  0.6783981226186394
  0.6436644069512120  0.2473604168194539  0.1783981436186379
  0.3699029302165193  0.2530636822257429  0.9961157182006256
  0.1300970697834808  0.7469363477742595  0.4961157582006220
  0.6300970397834784  0.7530636522257405  0.5038843227993742
  0.8699029302165191  0.2469363177742569  0.0038843127993732
  0.3703109340654113  0.2475896538776812  0.3255657536827705
  0.1296890509345910  0.7524103461223191  0.8255657536827705
  0.6296890959345840  0.7475896538776809  0.1744342463172295
  0.8703109340654114  0.2524103461223187  0.6744342463172295
  0.3892446967887661  0.2409289892621893  0.6679256009396524
  0.1107553112112346  0.7590710107378109  0.1679256719396474
  0.6107553032112337  0.7409289892621891  0.8320743580603478
  0.8892447267887688  0.2590710407378130  0.3320743990603479
