Al  O                                   
   1.00000000000000     
     5.2468580345629920   -0.0000000000000003   -0.0000000000000000
    -2.6234290172814947    4.5439123479820394    0.0000000000000000
    -0.0000000000000000    0.0000000000000000   11.5642038804768958
   Al   O 
    12    18
Direct
  0.4907711598840905  0.8701038741485334  0.3392668545229455
  0.8241051598840912  0.5367698741485398  0.8392665878342256
  0.8241051598840912  0.5367698741485398  0.3392668545229455
  0.4907711598840905  0.8701038741485334  0.8392665878342256
  0.1574381598840873  0.2034368741485366  0.3392951532618443
  0.1574381598840873  0.2034368741485366  0.8392921272898282
  0.1574381598840873  0.5367737852173011  0.0892602251748057
  0.8241144414838485  0.2034368741485366  0.5892540070059562
  0.8241012488153228  0.8700999630797721  0.0892602251748057
  0.1574381598840873  0.8701131557482978  0.5892540070059562
  0.4907750709528517  0.2034368741485366  0.0892602251748057
  0.4907618782843259  0.5367605925487754  0.5892540070059562
  0.1574381598840873  0.5368948590544746  0.2576372759684538
  0.8239789395072742  0.2034368741485366  0.7576352618866208
  0.8239801749781492  0.8699788892425986  0.2576372759684538
  0.1574381598840873  0.8699776537717235  0.7576352618866208
  0.4908961447900249  0.2034368741485366  0.2576372759684538
  0.4908973802609006  0.5368960945253497  0.7576352618866208
  0.1574381598840873  0.5366713648815054  0.9210547847652021
  0.8242218404815777  0.2034368741485366  0.4210518708837343
  0.8242036691511185  0.8702023834155679  0.9210547847652021
  0.1574381598840873  0.8702205547460270  0.4210518708837344
  0.4906726506170559  0.2034368741485366  0.9210547847652021
  0.4906544792865965  0.5366531935510462  0.4210518708837343
  0.4907711598840905  0.8701038741485334  0.0893889571276221
  0.8241051598840912  0.5367698741485398  0.5893868861407544
  0.8241051598840912  0.5367698741485398  0.0893889571276221
  0.4907711598840905  0.8701038741485334  0.5893868861407544
  0.1574381598840873  0.2034368741485366  0.5895878053020341
  0.1574381598840873  0.2034368741485366  0.0895914537867526
