Al  O                                   
   1.00000000000000     
    11.8380457603871658    0.0000000000000000   -0.0155380547266795
     0.0000000000000000    2.9286240217004327    0.0000000000000000
    -1.3685754890805129    0.0000000000000000    5.4858840211244102
   Al   O 
     8    12
Direct
  0.0910540510821323 -0.0000000000000000  0.7964018236891152
  0.9089459489178677  0.0000000000000000  0.2035981763108848
  0.5910540510821323  0.5000000000000000  0.7964018236891152
  0.4089459489178678  0.5000000000000000  0.2035981763108848
  0.8420122637711037  0.5000000000000000  0.6827549946142619
  0.1579877362288963  0.5000000000000000  0.3172450053857378
  0.3420122637711038  0.0000000000000000  0.6827549946142619
  0.6579877362288963  0.0000000000000000  0.3172450053857378
  0.1619752186321269  0.0000000000000000  0.1097094928848907
  0.8380247813678730 -0.0000000000000000  0.8902905071151096
  0.6619752186321270  0.5000000000000000  0.1097094928848907
  0.3380247813678731  0.5000000000000000  0.8902905071151096
  0.9949380490153505  0.5000000000000000  0.2561758407835549
  0.0050619509846495  0.5000000000000000  0.7438241592164453
  0.4949380490153504  0.0000000000000000  0.2561758407835549
  0.5050619509846495  0.0000000000000000  0.7438241592164453
  0.8268810264700931  0.0000000000000000  0.4343367174393201
  0.1731189735299067 -0.0000000000000000  0.5656632825606797
  0.3268810264700933  0.5000000000000000  0.4343367174393201
  0.6731189735299069  0.5000000000000000  0.5656632825606797
